 vasp.6.5.0 16Dec24 (build Apr 17 2025 17:55:45) complex

 executed on             LinuxIFC date 2025.06.10  15:31:49

 INCAR:
   ISTART = 0
   ICHARG = 2
   PREC = N
   LREAL = .FALSE.
   ENCUT = 520
   ALGO = N
   NELM = 500
   EDIFF = 1E-05
   IBRION = -1
   ISIF = 3
   NSW = 0
   EDIFFG = -0.01
   ISMEAR = 1
   SIGMA = 0.1
   LVHAR = .TRUE.
   LVTOT = .TRUE.

 POTCAR:    PAW_PBE Ti_sv 26Sep2005
 POTCAR:    PAW_PBE Al 04Jan2001
 POTCAR:    PAW_PBE Ga_d 06Jul2010
|           W    W    AA    RRRRR   N    N  II  N    N   GGGG   !!!           |
|           W    W   A  A   R    R  NN   N  II  NN   N  G    G  !!!           |
|           W    W  A    A  R    R  N N  N  II  N N  N  G       !!!           |
|           W WW W  AAAAAA  RRRRR   N  N N  II  N  N N  G  GGG   !            |
|           WW  WW  A    A  R   R   N   NN  II  N   NN  G    G                |
|           W    W  A    A  R    R  N    N  II  N    N   GGGG   !!!           |
|     For optimal performance we recommend to set                             |
|       NCORE = 2 up to number-of-cores-per-socket                            |
|     This setting can greatly improve the performance of VASP for DFT.       |
|     The default, NCORE=1 might be grossly inefficient on modern             |
|     multi-core architectures or massively parallel machines. Do your        |
|     Unfortunately you need to use the default for GW and RPA                |
|     calculations (for HF NCORE is supported but not extensively tested      |
|     yet).                                                                   |

   TITEL  = PAW_PBE Ti_sv 26Sep2005
   POMASS =   47.880; ZVAL   =   12.000    mass and valenz
   ENMAX  =  274.610; ENMIN  =  205.957 eV

   TITEL  = PAW_PBE Al 04Jan2001
   POMASS =   26.981; ZVAL   =    3.000    mass and valenz
   ENMAX  =  240.300; ENMIN  =  180.225 eV

   TITEL  = PAW_PBE Ga_d 06Jul2010
   POMASS =   69.723; ZVAL   =   13.000    mass and valenz
   ENMAX  =  282.691; ENMIN  =  212.018 eV

  PAW_PBE Ti_sv 26Sep2005               :
  PAW_PBE Al 04Jan2001                  :
  PAW_PBE Ga_d 06Jul2010                :

 POSCAR: Generated by VASPKIT code
  positions in direct lattice

 exchange-correlation table for PE
   RHO(1)=    0.500       N(1)  =     2000
   RHO(2)=  100.500       N(2)  =     4000

 ion  position               nearest neighbor table
   1  0.000  0.991  0.331-  17 2.69  25 2.69  22 2.79  30 2.79
   2  0.000  0.491  0.503-  18 2.69  26 2.69  24 2.69  32 2.69  29 2.79  21 2.79  27 2.79  19 2.79

   3  0.000  0.759  0.411-  22 2.69  30 2.69  27 2.69  19 2.69  17 2.79  25 2.79  24 2.79  32 2.79

[...]

  12  0.500  0.248  0.587-  20 2.80  28 2.80  21 2.84  29 2.84  23 2.89  31 2.89  18 2.95  26 2.95

  13  0.500  0.227  0.422-  34 2.20  29 2.67  21 2.67  25 2.77  17 2.77
  14  0.500  0.727  0.594-  33 2.20  26 2.77  18 2.77
  15  0.500  0.023  0.492-  33 2.20  25 2.67  17 2.67  21 2.77  29 2.77
  16  0.500  0.523  0.664-  18 2.67  26 2.67
  17  0.243  0.996  0.413-  15 2.67   1 2.69  13 2.77   3 2.79  25 2.84   7 2.85  11 2.95   5 2.96
                            25 3.01  22 3.19
  18  0.243  0.496  0.585-  16 2.67   2 2.69  14 2.77   4 2.79  10 2.84  26 2.84  12 2.95   6 2.96
                            26 3.01  21 3.19
  19  0.214  0.732  0.494-  27 2.51  33 2.52   3 2.69   2 2.79  11 2.80  24 2.81   6 2.84  10 2.89
                             7 2.96  27 3.35
  20  0.214  0.232  0.666-  28 2.51   4 2.69  12 2.80  23 2.81   9 2.89  28 3.35
  21  0.243  0.254  0.501-  13 2.67   4 2.69  15 2.77   2 2.79  12 2.84  29 2.84   5 2.85  10 2.95
                             7 2.96  29 3.01  18 3.19
  22  0.243  0.754  0.329-   3 2.69   1 2.79  11 2.84  30 2.84   8 2.96  30 3.01  17 3.19
  23  0.214  0.018  0.592-  31 2.51  33 2.52   4 2.79   9 2.80  20 2.81   7 2.84  12 2.89   6 2.96
                            31 3.35
  24  0.214  0.518  0.420-  32 2.51  34 2.52   2 2.69   3 2.79  10 2.80  19 2.81   8 2.84  11 2.89
                             5 2.96  32 3.35
  25  0.757  0.996  0.413-  15 2.67   1 2.69  13 2.77   3 2.79  17 2.84   7 2.85  11 2.95   5 2.96
                            17 3.01  30 3.19
  26  0.757  0.496  0.585-  16 2.67   2 2.69  14 2.77   4 2.79  10 2.84  18 2.84  12 2.95   6 2.96
                            18 3.01  29 3.19
  27  0.786  0.732  0.494-  19 2.51  33 2.52   3 2.69   2 2.79  11 2.80  32 2.81   6 2.84  10 2.89
                             7 2.96  19 3.35
  28  0.786  0.232  0.666-  20 2.51   4 2.69  12 2.80  31 2.81   9 2.89  20 3.35
  29  0.757  0.254  0.501-  13 2.67   4 2.69  15 2.77   2 2.79  12 2.84  21 2.84   5 2.85  10 2.95
                             7 2.96  21 3.01  26 3.19
  30  0.757  0.754  0.329-   3 2.69   1 2.79  11 2.84  22 2.84   8 2.96  22 3.01  25 3.19
  31  0.786  0.018  0.592-  23 2.51  33 2.52   4 2.79   9 2.80  28 2.81   7 2.84  12 2.89   6 2.96
                            23 3.35
  32  0.786  0.518  0.420-  24 2.51  34 2.52   2 2.69   3 2.79  10 2.80  27 2.81   8 2.84  11 2.89
                             5 2.96  24 3.35
  33  0.500  0.875  0.543-  14 2.20  15 2.20  19 2.52  23 2.52  27 2.52  31 2.52
  34  0.500  0.375  0.371-  13 2.20  24 2.52  32 2.52

  LATTYP: Found a simple monoclinic cell.
 ALAT       =    10.1595299535
 B/A-ratio  =     0.5766463142
 C/A-ratio  =     2.7592498170
 COS(beta)  =    -0.1213946104

  Lattice vectors:

 A1 = (   0.0000000000,  10.1595299535,   0.0000000000)
 A2 = (  -5.8584555020,   0.0000000000,   0.0000000000)
 A3 = (   0.0000000000,  -3.4030164088,  27.8253606017)

Analysis of symmetry for initial positions (statically):
 Subroutine PRICEL returns:
 Original cell was already a primitive cell.

 Routine SETGRP: Setting up the symmetry group for a
 simple monoclinic supercell.

 Subroutine GETGRP returns: Found  2 space group operations
 (whereof  2 operations were pure point group operations)
 out of a pool of  4 trial point group operations.

The static configuration has the point symmetry C_1h.

Analysis of symmetry for dynamics (positions and initial velocities):
 Subroutine PRICEL returns:
 Original cell was already a primitive cell.

 Routine SETGRP: Setting up the symmetry group for a
 simple monoclinic supercell.

 Subroutine GETGRP returns: Found  2 space group operations
 (whereof  2 operations were pure point group operations)
 out of a pool of  4 trial point group operations.

The dynamic configuration has the point symmetry C_1h.

 Subroutine INISYM returns: Found  2 space group operations
 (whereof  2 operations are pure point group operations),
 and found     1 'primitive' translations

                                     Primitive cell

  volume of cell :    1656.1419

  direct lattice vectors                    reciprocal lattice vectors
     5.858455502  0.000000000  0.000000000     0.170693453 -0.000000000 -0.000000000
     0.000000000 10.159529953  0.000000000     0.000000000  0.098429751  0.012037869
     0.000000000 -3.403016409 27.825360602     0.000000000  0.000000000  0.035938438

  length of vectors
     5.858455502 10.159529953 28.032681165     0.170693453  0.099163129  0.035938438

  position of ions in fractional coordinates (direct lattice)
     0.000000000  0.990663162  0.331199163
     0.000000000  0.490663162  0.503212114
     0.000000000  0.759336838  0.410781410
     0.000000000  0.259336838  0.582794362
     0.000000000  0.252246433  0.413220693
     0.000000000  0.752246433  0.585233645
     0.000000000  0.997753567  0.500772831
     0.000000000  0.497753567  0.328759880
     0.500000000  0.002246433  0.671240120
     0.500000000  0.502246433  0.499227169
     0.500000000  0.747753567  0.414766355
     0.500000000  0.247753567  0.586779307
     0.500000000  0.226808592  0.421971970
     0.500000000  0.726808592  0.593984921
     0.500000000  0.023191408  0.492021555
     0.500000000  0.523191408  0.664034506
     0.242685310  0.996342655  0.412735303
     0.242685310  0.496342655  0.584748254
     0.213916829  0.731958414  0.493793227
     0.213916829  0.231958414  0.665806178
     0.242685310  0.253657345  0.501258221
     0.242685310  0.753657345  0.329245270
     0.213916829  0.018041586  0.592213248
     0.213916829  0.518041586  0.420200297
     0.757314690  0.996342655  0.412735303
     0.757314690  0.496342655  0.584748254
     0.786083171  0.731958414  0.493793227
     0.786083171  0.231958414  0.665806178
     0.757314690  0.253657345  0.501258221
     0.757314690  0.753657345  0.329245270
     0.786083171  0.018041586  0.592213248
     0.786083171  0.518041586  0.420200297
     0.500000000  0.875000000  0.543003238
     0.500000000  0.375000000  0.370990287

  ion indices of the primitive-cell ions
   primitive index   ion index
                 1           1
                 2           2
                 3           3
                 4           4
                 5           5
                 6           6
                 7           7
                 8           8
                 9           9
                10          10
                11          11
                12          12
                13          13
                14          14
                15          15
                16          16
                17          17
                18          18
                19          19
                20          20
                21          21
                22          22
                23          23
                24          24
                25          25
                26          26
                27          27
                28          28
                29          29
                30          30
                31          31
                32          32
                33          33
                34          34

 KPOINTS: K-Spacing Value to Generate K-Mesh: 0.03

Automatic generation of k-mesh.
 Grid dimensions read from file:
 generate k-points for:    6    3    1

 Generating k-lattice:

  Cartesian coordinates                     Fractional coordinates (reciprocal lattice)
     0.028448909 -0.000000000 -0.000000000     0.166666667  0.000000000  0.000000000
     0.000000000  0.032809917  0.004012623     0.000000000  0.333333333  0.000000000
     0.000000000  0.000000000  0.035938438     0.000000000  0.000000000  1.000000000

  Length of vectors
     0.028448909  0.033054376  0.035938438

  Shift w.r.t. Gamma in fractional coordinates (k-lattice)
     0.000000000  0.000000000  0.000000000

 Subroutine IBZKPT returns following result:

 Found      8 irreducible k-points:

 Following reciprocal coordinates:
            Coordinates               Weight
  0.000000  0.000000  0.000000      1.000000
  0.166667  0.000000  0.000000      2.000000
  0.333333  0.000000  0.000000      2.000000
  0.500000  0.000000  0.000000      1.000000
  0.000000  0.333333  0.000000      2.000000
  0.166667  0.333333  0.000000      4.000000
  0.333333  0.333333  0.000000      4.000000
  0.500000  0.333333  0.000000      2.000000

 Following cartesian coordinates:
            Coordinates               Weight
  0.000000  0.000000  0.000000      1.000000
  0.028449  0.000000  0.000000      2.000000
[...]
 augmentation part       76.1002711 magnetization

 Free energy of the ion-electron system (eV)
  alpha Z        PSCENC =       243.40284528
  Ewald energy   TEWEN  =     84592.39660786
  -Hartree energ DENC   =   -110934.76416198
  -exchange      EXHF   =         0.00000000
  -V(xc)+E(xc)   XCENC  =       635.25450157
  PAW double counting   =     28725.24750337   -28525.96433635
  entropy T*S    EENTRO =        -0.01306789
  eigenvalues    EBANDS =     -5476.23280771
  atomic energy  EATOM  =     30563.62952402
  Solvation  Ediel_sol  =         0.00000000
  free energy    TOTEN  =      -177.04339183 eV

  energy without entropy =     -177.03032394  energy(sigma->0) =     -177.03903587

 average (electrostatic) potential at core
  the test charge radii are     1.0397  1.0406  1.0314
  (the norm of the test charge is              1.0000)
       1 -80.8612       2 -80.1133       3 -80.0327       4 -80.0642       5 -80.6614
       6 -80.6839       7 -80.5001       8 -80.9602       9 -80.9864      10 -80.3919
      11 -80.4320      12 -80.4502      13 -80.1438      14 -80.1960      15 -80.0885
      16 -81.0148      17 -79.1980      18 -79.1779      19 -79.4866      20 -79.5308
      21 -79.2248      22 -79.5836      23 -79.5025      24 -79.3405      25 -79.1980
      26 -79.1779      27 -79.4866      28 -79.5308      29 -79.2248      30 -79.5836
      31 -79.5025      32 -79.3405      33 -69.9146      34 -69.6539

 E-fermi :   0.5718     XC(G=0):  -4.7018     alpha+bet : -5.3502

 val. band max:        0.5713731835   @ k =   0.1667   0.0000   0.0000
 cond. band min:       0.5745376869   @ k =   0.3333   0.0000   0.0000
 fundamental gap:      0.0031645034
 Fermi energy:         0.5718087070

 k-point     1 :       0.0000    0.0000    0.0000
  band No.  band energies     occupation
      1     -56.9769      2.00000
      2     -56.9353      2.00000
      3     -56.9170      2.00000
      4     -56.8257      2.00000
      5     -56.6111      2.00000
      6     -56.5813      2.00000
      7     -56.4308      2.00000
      8     -56.3804      2.00000
      9     -56.3688      2.00000
     10     -56.3298      2.00000
     11     -56.1688      2.00000
     12     -56.1368      2.00000
     13     -56.0804      2.00000
     14     -56.0719      2.00000
     15     -56.0251      2.00000
     16     -55.9899      2.00000
     17     -33.3546      2.00000
     18     -33.3352      2.00000
     19     -33.2651      2.00000
     20     -33.2444      2.00000
     21     -33.2222      2.00000
     22     -33.1660      2.00000
     23     -33.1593      2.00000
     24     -33.1470      2.00000
     25     -33.1236      2.00000
     26     -33.0943      2.00000
     27     -33.0905      2.00000
     28     -32.9871      2.00000
     29     -32.9790      2.00000
     30     -32.9481      2.00000
     31     -32.8659      2.00000
     32     -32.8051      2.00000
     33     -32.8017      2.00000
     34     -32.7837      2.00000
     35     -32.7616      2.00000
     36     -32.7574      2.00000
     37     -32.7283      2.00000
     38     -32.7026      2.00000
     39     -32.7018      2.00000
     40     -32.6800      2.00000
     41     -32.6684      2.00000
     42     -32.6536      2.00000
     43     -32.6398      2.00000
     44     -32.5782      2.00000
     45     -32.5741      2.00000
     46     -32.5693      2.00000
     47     -32.5212      2.00000
     48     -32.5132      2.00000
     49     -32.5021      2.00000
     50     -32.4472      2.00000
     51     -32.4191      2.00000
     52     -32.4128      2.00000
     53     -32.4041      2.00000
     54     -32.3822      2.00000
     55     -32.3809      2.00000
     56     -32.3534      2.00000
     57     -32.3244      2.00000
     58     -32.3116      2.00000
     59     -32.2907      2.00000
     60     -32.2656      2.00000
[...]
    178       2.4082     -0.00000
    179       2.4988     -0.00000
    180       2.5520     -0.00000
    181       2.6268      0.00000
    182       2.6534      0.00000
    183       2.7839      0.00000
    184       2.7861      0.00000
    185       2.8161      0.00000
    186       2.9353      0.00000
    187       2.9389      0.00000
    188       3.0286      0.00000
    189       3.1384      0.00000
    190       3.2662      0.00000
    191       3.2969      0.00000
    192       3.3836      0.00000

[...]

 k-point     8 :       0.5000    0.3333    0.0000
  band No.  band energies     occupation
      1     -56.9769      2.00000
      2     -56.9353      2.00000
      3     -56.9170      2.00000
      4     -56.8257      2.00000
      5     -56.6105      2.00000
      6     -56.5807      2.00000
      7     -56.4300      2.00000
      8     -56.3795      2.00000
      9     -56.3680      2.00000
     10     -56.3285      2.00000
     11     -56.1695      2.00000
     12     -56.1375      2.00000
     13     -56.0813      2.00000
     14     -56.0732      2.00000
     15     -56.0261      2.00000
     16     -55.9908      2.00000
     17     -33.3546      2.00000
     18     -33.3352      2.00000
     19     -33.2651      2.00000
     20     -33.2444      2.00000
     21     -33.2221      2.00000
     22     -33.1660      2.00000
     23     -33.1594      2.00000
     24     -33.1470      2.00000
     25     -33.1236      2.00000
     26     -33.0943      2.00000
     27     -33.0905      2.00000
     28     -32.9871      2.00000
     29     -32.9791      2.00000
     30     -32.9484      2.00000
     31     -32.8655      2.00000
     32     -32.8041      2.00000
     33     -32.7606      2.00000
     34     -32.7578      2.00000
     35     -32.7498      2.00000
     36     -32.7339      2.00000
     37     -32.7276      2.00000
     38     -32.7007      2.00000
     39     -32.6799      2.00000
     40     -32.6674      2.00000
     41     -32.6526      2.00000
     42     -32.6448      2.00000
     43     -32.6390      2.00000
     44     -32.5216      2.00000
     45     -32.5120      2.00000
     46     -32.5031      2.00000
     47     -32.4963      2.00000
     48     -32.4945      2.00000
     49     -32.4798      2.00000
     50     -32.4462      2.00000
     51     -32.4192      2.00000
     52     -32.4150      2.00000
     53     -32.4086      2.00000
     54     -32.4046      2.00000
     55     -32.3819      2.00000
     56     -32.3812      2.00000
     57     -32.3653      2.00000
     58     -32.3261      2.00000
     59     -32.3245      2.00000
     60     -32.3007      2.00000
[...]
    178       2.2489     -0.00000
    179       2.3058     -0.00000
    180       2.3229     -0.00000
    181       2.4024     -0.00000
    182       2.5268     -0.00000
    183       2.6333      0.00000
    184       2.6784      0.00000
    185       2.7801      0.00000
    186       2.7921      0.00000
    187       3.0191      0.00000
    188       3.0784      0.00000
    189       3.1429      0.00000
    190       3.3398      0.00000
    191       3.4112      0.00000
    192       3.4418      0.00000

 soft charge-density along one line, spin component           1
         0         1         2         3         4         5         6         7         8         9
 total charge-density along one line

------------------------ aborting loop because EDIFF is reached ----------------------------------------

  FORCE on cell =-STRESS in cart. coord.  units (eV):
  Direction    XX          YY          ZZ          XY          YZ          ZX
  Alpha Z   243.40285   243.40285   243.40285
  Ewald   96801.25358 96821.47071************     0.00000  -772.12570     0.00000
  Hartree104371.11872104293.60915-97729.97418     0.00000  -458.36389    -0.00000
  E(xc)   -1301.53373 -1301.52112 -1303.10271    -0.00000    -0.68449    -0.00000
  Local  ************************203661.85005    -0.00000  1236.03660    -0.00000
  n-local  -218.03299  -177.72687  -177.43100     0.68765    10.13055    -0.08107
  augment  1239.58479  1219.49633  1217.00729    -0.00000    -4.19072     0.00000
  Kinetic  3171.44462  3122.27698  3126.14974     1.10933   -36.97362    -0.29090
  Fock        0.00000     0.00000     0.00000     0.00000     0.00000     0.00000
  Total     -17.92933   -16.94981     7.52958    -0.00000   -26.17127    -0.00000
  in kB     -17.34511   -16.39751     7.28424    -0.00000   -25.31850    -0.00000

 VOLUME and BASIS-vectors are now :
  energy-cutoff  :      520.00
  volume of cell :     1656.14
      direct lattice vectors                 reciprocal lattice vectors
     5.858455502  0.000000000  0.000000000     0.170693453 -0.000000000 -0.000000000
     0.000000000 10.159529953  0.000000000     0.000000000  0.098429751  0.012037869
     0.000000000 -3.403016409 27.825360602     0.000000000  0.000000000  0.035938438

  length of vectors
     5.858455502 10.159529953 28.032681165     0.170693453  0.099163129  0.035938438

 FORCES acting on ions
    electron-ion (+dipol)            ewald-force                    non-local-force                 convergence-correction
   -.124E-13 -.675E+02 0.252E+04   0.786E-14 0.634E+02 -.251E+04   0.717E-16 0.408E+01 -.581E+01   -.669E-13 0.687E-04 0.138E-02
   -.327E-13 0.157E+02 -.172E+03   -.120E-13 -.157E+02 0.172E+03   0.707E-17 -.132E+00 0.520E+00   -.137E-13 0.194E-03 -.126E-02
   -.282E-14 -.183E+02 0.149E+04   0.476E-13 0.182E+02 -.149E+04   0.317E-16 0.288E+00 0.649E+00   -.528E-13 -.385E-03 0.141E-02
   -.662E-14 -.690E+02 -.158E+04   0.550E-13 0.685E+02 0.158E+04   0.403E-16 0.872E+00 -.377E+00   0.881E-13 0.546E-03 -.310E-02
   -.306E-13 0.529E+02 0.148E+04   -.872E-14 -.536E+02 -.148E+04   0.164E-16 0.706E+00 -.884E+00   0.911E-14 0.463E-03 0.147E-02
   -.531E-14 0.463E+02 -.172E+04   0.193E-13 -.468E+02 0.172E+04   0.752E-16 0.275E+00 0.201E+01   0.434E-14 -.615E-03 -.331E-02
   -.122E-13 -.417E+02 -.609E+02   0.641E-14 0.419E+02 0.606E+02   0.204E-17 -.139E+00 0.427E+00   0.342E-13 -.191E-03 -.137E-02
   0.187E-13 0.301E+02 0.256E+04   -.183E-13 -.259E+02 -.255E+04   -.360E-15 -.316E+01 -.600E+01   0.583E-13 -.531E-04 0.179E-02
   0.700E-12 0.389E+02 -.260E+04   0.312E-13 -.360E+02 0.259E+04   0.306E-17 -.271E+01 0.566E+01   -.202E-12 -.231E-03 -.195E-02
   0.693E-12 0.264E+02 -.911E+02   0.126E-13 -.264E+02 0.911E+02   -.239E-16 -.285E+00 -.234E+00   0.394E-13 -.265E-04 -.998E-03
   0.711E-12 -.128E+02 0.152E+04   -.550E-13 0.131E+02 -.152E+04   -.414E-16 -.446E+00 -.512E+00   0.955E-13 -.344E-03 0.971E-03
   0.719E-12 -.666E+02 -.160E+04   -.136E-13 0.673E+02 0.160E+04   -.385E-16 -.358E+00 -.618E+00   -.127E-12 0.506E-03 -.373E-02
   0.733E-12 0.230E+03 0.125E+04   -.237E-13 -.234E+03 -.124E+04   0.265E-16 0.114E+01 -.146E+01   0.153E-13 0.557E-03 0.893E-03
   0.728E-12 0.220E+03 -.193E+04   -.417E-13 -.224E+03 0.193E+04   0.568E-16 0.131E+01 -.674E+00   -.713E-13 -.532E-03 -.436E-02
   0.771E-12 -.200E+03 0.256E+03   0.465E-13 0.204E+03 -.259E+03   -.265E-16 -.833E+00 0.830E+00   0.132E-13 0.226E-03 -.106E-02
   0.841E-12 -.238E+01 -.257E+04   0.275E-13 0.231E+01 0.256E+04   0.188E-15 -.428E+00 0.741E+01   -.264E-12 0.102E-03 -.267E-02
   -.139E+02 -.299E+01 0.402E+03   0.131E+02 0.358E+01 -.401E+03   0.759E+00 -.542E+00 -.881E+00   0.709E-04 0.606E-04 0.321E-03
   0.273E+02 0.924E+01 -.415E+03   -.266E+02 -.853E+01 0.415E+03   -.590E+00 -.811E+00 0.254E+00   -.737E-04 0.128E-03 -.998E-03
   0.195E+02 0.205E+02 0.234E+02   -.214E+02 -.215E+02 -.249E+02   0.293E+01 0.784E+00 0.172E+01   -.524E-04 -.196E-03 -.181E-03
   0.217E+02 -.125E+02 -.665E+03   -.230E+02 0.111E+02 0.662E+03   0.250E+01 0.104E+01 0.329E+01   -.194E-03 0.222E-03 -.538E-03
   0.860E+01 -.918E+01 -.327E+02   -.872E+01 0.912E+01 0.325E+02   0.616E-02 0.172E+00 0.181E+00   0.739E-04 0.195E-03 -.379E-03
   -.437E+02 -.120E+02 0.659E+03   0.419E+02 0.125E+02 -.657E+03   0.181E+01 -.412E+00 -.308E+01   0.393E-04 -.318E-04 0.406E-03
   0.433E+02 -.848E+01 -.464E+03   -.444E+02 0.914E+01 0.465E+03   0.186E+01 -.768E+00 -.235E+00   -.127E-03 -.379E-04 -.959E-03
   0.738E+01 -.156E+02 0.327E+03   -.920E+01 0.163E+02 -.327E+03   0.248E+01 -.551E+00 -.968E+00   -.405E-05 -.653E-04 0.423E-03
   0.139E+02 -.299E+01 0.402E+03   -.131E+02 0.358E+01 -.401E+03   -.759E+00 -.542E+00 -.881E+00   -.709E-04 0.606E-04 0.321E-03
   -.273E+02 0.924E+01 -.415E+03   0.266E+02 -.853E+01 0.415E+03   0.590E+00 -.811E+00 0.254E+00   0.737E-04 0.128E-03 -.998E-03
   -.195E+02 0.205E+02 0.234E+02   0.214E+02 -.215E+02 -.249E+02   -.293E+01 0.784E+00 0.172E+01   0.524E-04 -.196E-03 -.181E-03
   -.217E+02 -.125E+02 -.665E+03   0.230E+02 0.111E+02 0.662E+03   -.250E+01 0.104E+01 0.329E+01   0.194E-03 0.222E-03 -.538E-03
   -.860E+01 -.918E+01 -.327E+02   0.872E+01 0.912E+01 0.325E+02   -.616E-02 0.172E+00 0.181E+00   -.739E-04 0.195E-03 -.379E-03
   0.437E+02 -.120E+02 0.659E+03   -.419E+02 0.125E+02 -.657E+03   -.181E+01 -.412E+00 -.308E+01   -.393E-04 -.318E-04 0.406E-03
   -.433E+02 -.848E+01 -.464E+03   0.444E+02 0.914E+01 0.465E+03   -.186E+01 -.768E+00 -.235E+00   0.127E-03 -.379E-04 -.959E-03
   -.738E+01 -.156E+02 0.327E+03   0.920E+01 0.163E+02 -.327E+03   -.248E+01 -.551E+00 -.968E+00   0.405E-05 -.653E-04 0.423E-03
   0.117E-11 0.103E+02 -.923E+03   0.372E-13 -.107E+02 0.923E+03   0.145E-16 0.346E+00 -.186E+00   -.175E-12 -.115E-02 -.253E-02
   0.119E-11 -.136E+03 0.251E+04   -.124E-13 0.131E+03 -.251E+04   0.430E-15 0.750E+01 -.455E+00   0.139E-12 -.764E-03 0.243E-02
   0.122E-10 -.585E+01 -.837E+00   -.148E-15 0.568E-13 -.136E-11   0.889E-15 0.585E+01 0.855E+00   -.452E-12 -.108E-02 -.198E-01

 POSITION                                       TOTAL-FORCE (eV/Angst)
      0.00000      8.93760      9.21574         0.000000     -0.040496      0.497789
      0.00000      3.27247     14.00206         0.000000     -0.166424      0.470925
      0.00000      6.31661     11.43014         0.000000      0.150302     -0.210038
      0.00000      0.65148     16.21646         0.000000      0.314849     -0.151979
      0.00000      1.15651     11.49801        -0.000000     -0.023931     -0.116226
      0.00000      5.65091     16.28434        -0.000000     -0.216403     -0.130013
      0.00000      8.43257     13.93418         0.000000      0.000430      0.069485
      0.00000      3.93817      9.14786         0.000000      0.955273      1.866246
      2.92923     -2.26142     18.67750        -0.000000      0.179701     -0.940494
      2.92923      3.40371     13.89118        -0.000000     -0.234234     -0.276926
      2.92923      6.18537     11.54102        -0.000000     -0.151542     -0.071160
      2.92923      0.52024     16.32735         0.000000      0.393848      0.064582
      2.92923      0.86829     11.74152        -0.000000     -2.582179      2.174145
      2.92923      5.36269     16.52784        -0.000000     -3.393155      3.116986
      2.92923     -1.43874     13.69068         0.000000      3.017323     -2.045714
      2.92923      3.05566     18.47700        -0.000000     -0.489359     -1.283385
      1.42176      8.71783     11.48451        -0.058499      0.041597     -0.529526
      1.42176      3.05270     16.27083         0.135588     -0.096755      0.396251
      1.25322      5.75597     13.73997         0.948092     -0.161157      0.259889
      1.25322      0.09084     18.52630         1.236919     -0.396612      0.124691
      1.42176      0.87125     13.94769        -0.111381      0.113484      0.020586
      1.42176      6.53638      9.16137         0.021571      0.128224     -0.195830
      1.25322     -1.83202     16.47855         0.793321     -0.099456      0.508787
      1.25322      3.83311     11.69222         0.672937      0.144404     -0.262233
      4.43669      8.71783     11.48451         0.058499      0.041597     -0.529526
      4.43669      3.05270     16.27083        -0.135588     -0.096755      0.396251
      4.60523      5.75597     13.73997        -0.948092     -0.161157      0.259889
      4.60523      0.09084     18.52630        -1.236919     -0.396612      0.124691
      4.43669      0.87125     13.94769         0.111381      0.113484      0.020586
      4.43669      6.53638      9.16137        -0.021571      0.128224     -0.195830
      4.60523     -1.83202     16.47855        -0.793321     -0.099456      0.508787
      4.60523      3.83311     11.69222        -0.672937      0.144404     -0.262233
      2.92923      7.04174     15.10926         0.000000     -0.111232      0.101579
      2.92923      2.54734     10.32294         0.000000      3.049769     -3.781029
    total drift:                                0.000000      0.000078     -0.001943

  FREE ENERGIE OF THE ION-ELECTRON SYSTEM (eV)
  free  energy   TOTEN  =      -177.04339183 eV

  energy  without entropy=     -177.03032394  energy(sigma->0) =     -177.03903587

 writing wavefunctions