 vasp.6.5.0 16Dec24 (build Apr 17 2025 17:55:45) complex

 executed on             LinuxIFC date 2025.06.10  11:57:32

 INCAR:
   ISTART = 0
   ICHARG = 2
   PREC = N
   LREAL = .FALSE.
   ENCUT = 520
   ALGO = N
   NELM = 500
   EDIFF = 1E-05
   IBRION = -1
   ISIF = 3
   NSW = 0
   EDIFFG = -0.01
   ISMEAR = 1
   SIGMA = 0.1
   LVHAR = .TRUE.
   LVTOT = .TRUE.

 POTCAR:    PAW_PBE Ti_sv 26Sep2005
 POTCAR:    PAW_PBE Ga_d 06Jul2010
 POTCAR:    PAW_PBE Al 04Jan2001
|           W    W    AA    RRRRR   N    N  II  N    N   GGGG   !!!           |
|           W    W   A  A   R    R  NN   N  II  NN   N  G    G  !!!           |
|           W    W  A    A  R    R  N N  N  II  N N  N  G       !!!           |
|           W WW W  AAAAAA  RRRRR   N  N N  II  N  N N  G  GGG   !            |
|           WW  WW  A    A  R   R   N   NN  II  N   NN  G    G                |
|           W    W  A    A  R    R  N    N  II  N    N   GGGG   !!!           |
|     For optimal performance we recommend to set                             |
|       NCORE = 2 up to number-of-cores-per-socket                            |
|     This setting can greatly improve the performance of VASP for DFT.       |
|     The default, NCORE=1 might be grossly inefficient on modern             |
|     multi-core architectures or massively parallel machines. Do your        |
|     Unfortunately you need to use the default for GW and RPA                |
|     calculations (for HF NCORE is supported but not extensively tested      |
|     yet).                                                                   |

   TITEL  = PAW_PBE Ti_sv 26Sep2005
   POMASS =   47.880; ZVAL   =   12.000    mass and valenz
   ENMAX  =  274.610; ENMIN  =  205.957 eV

   TITEL  = PAW_PBE Ga_d 06Jul2010
   POMASS =   69.723; ZVAL   =   13.000    mass and valenz
   ENMAX  =  282.691; ENMIN  =  212.018 eV

   TITEL  = PAW_PBE Al 04Jan2001
   POMASS =   26.981; ZVAL   =    3.000    mass and valenz
   ENMAX  =  240.300; ENMIN  =  180.225 eV

  PAW_PBE Ti_sv 26Sep2005               :
  PAW_PBE Ga_d 06Jul2010                :
  PAW_PBE Al 04Jan2001                  :

 POSCAR: Generated by VASPKIT code
  positions in direct lattice

 exchange-correlation table for PE
   RHO(1)=    0.500       N(1)  =     2000
   RHO(2)=  100.500       N(2)  =     4000

 ion  position               nearest neighbor table
   1  1.000  0.000  0.322-  17 2.73  21 2.73   5 2.82   5 2.82  26 2.84  30 2.84  20 2.85  24 2.85

   2  0.500  0.000  0.500-  18 2.73  22 2.73  28 2.73  32 2.73   6 2.82   6 2.82  25 2.84  29 2.84
                            19 2.85  23 2.85
   3  0.750  0.000  0.411-  26 2.73  30 2.73  19 2.73  23 2.73   7 2.82   7 2.82  17 2.84  21 2.84
                            28 2.85  32 2.85
   4  0.250  0.000  0.589-  25 2.73  29 2.73   8 2.82   8 2.82  18 2.84  22 2.84  27 2.85  31 2.85

   5  1.000  0.500  0.322-  17 2.73  21 2.73   1 2.82   1 2.82  26 2.84  30 2.84  20 2.85  24 2.85

[...]

   9  0.250  0.000  0.411-  25 2.73  29 2.73  20 2.73  24 2.73  13 2.82  13 2.82  17 2.84  21 2.84
                            28 2.85  32 2.85
  10  0.750  0.000  0.589-  19 2.73  23 2.73  14 2.82  14 2.82  18 2.84  22 2.84  27 2.85  31 2.85

  11  0.000  0.000  0.500-  17 2.73  21 2.73  27 2.73  31 2.73  15 2.82  15 2.82  25 2.84  29 2.84
                            19 2.85  23 2.85
  12  0.500  0.000  0.678-  18 2.73  22 2.73  16 2.82  16 2.82
  13  0.250  0.500  0.411-  25 2.73  29 2.73  20 2.73  24 2.73   9 2.82   9 2.82  17 2.84  21 2.84
                            28 2.85  32 2.85
  14  0.750  0.500  0.589-  19 2.73  23 2.73  10 2.82  10 2.82  18 2.84  22 2.84  27 2.85  31 2.85

  15  0.000  0.500  0.500-  17 2.73  21 2.73  27 2.73  31 2.73  11 2.82  11 2.82  25 2.84  29 2.84
                            19 2.85  23 2.85
  16  0.500  0.500  0.678-  18 2.73  22 2.73  12 2.82  12 2.82
  17  0.000  0.250  0.411-   1 2.73   5 2.73  11 2.73  15 2.73  21 2.82  21 2.82  13 2.84   7 2.84
                             9 2.84   3 2.84
  18  0.500  0.250  0.589-  12 2.73  16 2.73   2 2.73   6 2.73  22 2.82  22 2.82   4 2.84   8 2.84
                            14 2.84  10 2.84
  19  0.750  0.250  0.500-   3 2.73   7 2.73  10 2.73  14 2.73  23 2.82  23 2.82   6 2.85   2 2.85
                            11 2.85  15 2.85  28 3.17  27 3.17
  20  0.250  0.250  0.322-   9 2.73  13 2.73  24 2.82  24 2.82   1 2.85   5 2.85  28 3.17
  21  0.000  0.750  0.411-   1 2.73   5 2.73  11 2.73  15 2.73  17 2.82  17 2.82  13 2.84   7 2.84
                             9 2.84   3 2.84  30 3.17  29 3.17
  22  0.500  0.750  0.589-  12 2.73  16 2.73   2 2.73   6 2.73  18 2.82  18 2.82   4 2.84   8 2.84
                            14 2.84  10 2.84  29 3.17
  23  0.750  0.750  0.500-   3 2.73   7 2.73  10 2.73  14 2.73  19 2.82  19 2.82   6 2.85   2 2.85
                            11 2.85  15 2.85  32 3.17  31 3.17
  24  0.250  0.750  0.322-   9 2.73  13 2.73  20 2.82  20 2.82   1 2.85   5 2.85  32 3.17
  25  0.250  0.250  0.500-   4 2.73   8 2.73   9 2.73  13 2.73  29 2.82  29 2.82  11 2.84  15 2.84
                             6 2.84   2 2.84
  26  0.750  0.250  0.322-   3 2.73   7 2.73  30 2.82  30 2.82   5 2.84   1 2.84
  27  0.000  0.250  0.589-  11 2.73  15 2.73  31 2.82  31 2.82  14 2.85  10 2.85   4 2.85   8 2.85
                            19 3.17
  28  0.500  0.250  0.411-   2 2.73   6 2.73  32 2.82  32 2.82   9 2.85  13 2.85   3 2.85   7 2.85
                            19 3.17  20 3.17
  29  0.250  0.750  0.500-   4 2.73   8 2.73   9 2.73  13 2.73  25 2.82  25 2.82  11 2.84  15 2.84
                             6 2.84   2 2.84  21 3.17  22 3.17
  30  0.750  0.750  0.322-   3 2.73   7 2.73  26 2.82  26 2.82   5 2.84   1 2.84  21 3.17
  31  0.000  0.750  0.589-  11 2.73  15 2.73  27 2.82  27 2.82  14 2.85  10 2.85   4 2.85   8 2.85
                            23 3.17
  32  0.500  0.750  0.411-   2 2.73   6 2.73  28 2.82  28 2.82   9 2.85  13 2.85   3 2.85   7 2.85
                            23 3.17  24 3.17

  LATTYP: Found a simple monoclinic cell.
 ALAT       =     9.8813496165
 B/A-ratio  =     0.5713071878
 C/A-ratio  =     2.6513288651
 COS(beta)  =    -0.1309593083

  Lattice vectors:

 A1 = (   9.8813496165,   0.0000000000,   0.0000000000)
 A2 = (   0.0000000000,   5.6452860611,   0.0000000000)
 A3 = (  -3.4309646087,   0.0000000000,  25.9730774963)

Analysis of symmetry for initial positions (statically):
 Subroutine PRICEL returns:
 Original cell was already a primitive cell.

 Routine SETGRP: Setting up the symmetry group for a
 simple monoclinic supercell.

 Subroutine GETGRP returns: Found  2 space group operations
 (whereof  1 operations were pure point group operations)
 out of a pool of  4 trial point group operations.

The static configuration has the point symmetry C_1 .
 The point group associated with its full space group is C_1h.

Analysis of symmetry for dynamics (positions and initial velocities):
 Subroutine PRICEL returns:
 Original cell was already a primitive cell.

 Routine SETGRP: Setting up the symmetry group for a
 simple monoclinic supercell.

 Subroutine GETGRP returns: Found  2 space group operations
 (whereof  1 operations were pure point group operations)
 out of a pool of  4 trial point group operations.

The dynamic configuration has the point symmetry C_1 .
 The point group associated with its full space group is C_1h.

 Subroutine INISYM returns: Found  2 space group operations
 (whereof  1 operations are pure point group operations),
 and found     1 'primitive' translations

                                     Primitive cell

  volume of cell :    1448.8574

  direct lattice vectors                    reciprocal lattice vectors
     9.881349616  0.000000000  0.000000000     0.101200751 -0.000000000  0.013368312
     0.000000000  5.645286061  0.000000000     0.000000000  0.177138942 -0.000000000
    -3.430964609  0.000000000 25.973077496     0.000000000  0.000000000  0.038501406

  length of vectors
     9.881349616  5.645286061 26.198707464     0.102079889  0.177138942  0.038501406

  position of ions in fractional coordinates (direct lattice)
     0.999789982  0.000197156  0.321829677
     0.499789982  0.000197156  0.500217905
     0.750407174  0.000197156  0.410803591
     0.250407174  0.000197156  0.589191820
     0.999789982  0.499802844  0.321829677
     0.499789982  0.499802844  0.500217905
     0.750407174  0.499802844  0.410803591
     0.250407174  0.499802844  0.589191820
     0.249592826  0.000197156  0.410953451
     0.749592826  0.000197156  0.589341679
     0.000210018  0.000197156  0.499927365
     0.500210018  0.000197156  0.678315593
     0.249592826  0.499802844  0.410953451
     0.749592826  0.499802844  0.589341679
     0.000210018  0.499802844  0.499927365
     0.500210018  0.499802844  0.678315593
     1.000000000  0.250000000  0.410878521
     0.500000000  0.250000000  0.589266749
     0.750000000  0.250000000  0.500072635
     0.250000000  0.250000000  0.321684407
     1.000000000  0.750000000  0.410878521
     0.500000000  0.750000000  0.589266749
     0.750000000  0.750000000  0.500072635
     0.250000000  0.750000000  0.321684407
     0.250000000  0.250000000  0.500072635
     0.750000000  0.250000000  0.321684407
     1.000000000  0.250000000  0.589266749
     0.500000000  0.250000000  0.410878521
     0.250000000  0.750000000  0.500072635
     0.750000000  0.750000000  0.321684407
     1.000000000  0.750000000  0.589266749
     0.500000000  0.750000000  0.410878521

  ion indices of the primitive-cell ions
   primitive index   ion index
                 1           1
                 2           2
                 3           3
                 4           4
                 5           5
                 6           6
                 7           7
                 8           8
                 9           9
                10          10
                11          11
                12          12
                13          13
                14          14
                15          15
                16          16
                17          17
                18          18
                19          19
                20          20
                21          21
                22          22
                23          23
                24          24
                25          25
                26          26
                27          27
                28          28
                29          29
                30          30
                31          31
                32          32

 KPOINTS: K-Spacing Value to Generate K-Mesh: 0.03

Automatic generation of k-mesh.
 Grid dimensions read from file:
 generate k-points for:    3    6    1

 Generating k-lattice:

  Cartesian coordinates                     Fractional coordinates (reciprocal lattice)
     0.033733584 -0.000000000  0.004456104     0.333333333  0.000000000 -0.000000000
     0.000000000  0.029523157 -0.000000000     0.000000000  0.166666667 -0.000000000
     0.000000000  0.000000000  0.038501406     0.000000000  0.000000000  1.000000000

  Length of vectors
     0.034026630  0.029523157  0.038501406

[...]
  1.1385  1.1385  0.9380  0.9380  0.8517  0.8517  0.7021  0.7021  0.5289  0.5289
  0.4434  0.1269  0.2190  0.2190  0.1612  0.1716  0.1902  0.1854

[...]

--------------------------------------- Iteration      1(  34)  ---------------------------------------

 eigenvalue-minimisations  :  2688
 total energy-change (2. order) :-0.6703394E-05  (-0.3550833E-07)
 number of electron     259.9999422 magnetization
 augmentation part       75.8608847 magnetization

 Free energy of the ion-electron system (eV)
  alpha Z        PSCENC =       272.35196750
  Ewald energy   TEWEN  =     76616.56415543
  -Hartree energ DENC   =   -102911.99792268
  -exchange      EXHF   =         0.00000000
  -V(xc)+E(xc)   XCENC  =       690.22568421
  PAW double counting   =     28723.62610938   -28578.58099012
  entropy T*S    EENTRO =        -0.01549853
  eigenvalues    EBANDS =     -5447.26696515
  atomic energy  EATOM  =     30456.55260990
  Solvation  Ediel_sol  =         0.00000000
  free energy    TOTEN  =      -178.54085007 eV

  energy without entropy =     -178.52535154  energy(sigma->0) =     -178.53568389

 average (electrostatic) potential at core
  the test charge radii are     1.0397  1.0314  1.0406
  (the norm of the test charge is              1.0000)
       1 -80.4513       2 -80.2470       3 -80.1956       4 -80.3664       5 -80.4513
       6 -80.2470       7 -80.1956       8 -80.3664       9 -80.2193      10 -80.4397
      11 -80.2720      12 -80.8073      13 -80.2193      14 -80.4397      15 -80.2720
      16 -80.8073      17 -69.5536      18 -69.4115      19 -79.2113      20 -79.7320
      21 -79.3508      22 -79.1898      23 -79.2577      24 -79.7454      25 -79.2792
      26 -79.6256      27 -79.2082      28 -79.5340      29 -79.2739      30 -79.6121
      31 -79.2136      32 -79.5453

 E-fermi :   0.5096     XC(G=0):  -4.9298     alpha+bet : -5.7768

 val. band max:        0.5058413048   @ k =   0.3333   0.1667   0.0000
 cond. band min:       0.5097299398   @ k =   0.3333   0.5000   0.0000
 fundamental gap:      0.0038886350
 Fermi energy:         0.5095823103

 k-point     1 :       0.0000    0.0000    0.0000
  band No.  band energies     occupation
      1     -56.7899      2.00000
      2     -56.7353      2.00000
      3     -56.4215      2.00000
      4     -56.4104      2.00000
      5     -56.3658      2.00000
      6     -56.3543      2.00000
      7     -56.3372      2.00000
      8     -56.2810      2.00000
      9     -56.2576      2.00000
     10     -56.2342      2.00000
     11     -56.2032      2.00000
     12     -56.2002      2.00000
     13     -56.1785      2.00000
     14     -56.1766      2.00000
     15     -56.1459      2.00000
     16     -56.1213      2.00000
     17     -33.2062      2.00000
     18     -33.1683      2.00000
     19     -33.1578      2.00000
     20     -33.1163      2.00000
     21     -32.9713      2.00000
     22     -32.8487      2.00000
     23     -32.8128      2.00000
     24     -32.7956      2.00000
     25     -32.7595      2.00000
     26     -32.7573      2.00000
     27     -32.7245      2.00000
     28     -32.7066      2.00000
     29     -32.6934      2.00000
     30     -32.6911      2.00000
     31     -32.6698      2.00000
     32     -32.6520      2.00000
     33     -32.6502      2.00000
     34     -32.6444      2.00000
     35     -32.6391      2.00000
     36     -32.6381      2.00000
     37     -32.6135      2.00000
     38     -32.6093      2.00000
     39     -32.6034      2.00000
     40     -32.5923      2.00000
     41     -32.5917      2.00000
     42     -32.5797      2.00000
     43     -32.5728      2.00000
     44     -32.5706      2.00000
     45     -32.5515      2.00000
     46     -32.5430      2.00000
     47     -32.5345      2.00000
     48     -32.5244      2.00000
     49     -32.5230      2.00000
     50     -32.5173      2.00000
     51     -32.5145      2.00000
     52     -32.4856      2.00000
     53     -32.4783      2.00000
     54     -32.4606      2.00000
     55     -32.4573      2.00000
     56     -32.4228      2.00000
     57     -32.4051      2.00000
     58     -32.3017      2.00000
     59     -32.2704      2.00000
     60     -32.2340      2.00000
[...]
    178       2.8623      0.00000
    179       2.8985      0.00000
    180       2.9043      0.00000
    181       3.0190      0.00000
    182       3.0872      0.00000
    183       3.1293      0.00000
    184       3.1398      0.00000
    185       3.1937      0.00000
    186       3.2863      0.00000
    187       3.4535      0.00000
    188       3.5218      0.00000
    189       3.7021      0.00000
    190       3.9126      0.00000
    191       3.9291      0.00000
    192       4.1661      0.00000

[...]

 k-point     8 :       0.3333    0.5000    0.0000
  band No.  band energies     occupation
      1     -56.7629      2.00000
      2     -56.7624      2.00000
      3     -56.3940      2.00000
      4     -56.3935      2.00000
      5     -56.3828      2.00000
      6     -56.3822      2.00000
      7     -56.3095      2.00000
      8     -56.3089      2.00000
      9     -56.2292      2.00000
     10     -56.2287      2.00000
     11     -56.2057      2.00000
     12     -56.2052      2.00000
     13     -56.1749      2.00000
     14     -56.1744      2.00000
     15     -56.1503      2.00000
     16     -56.1498      2.00000
     17     -33.1823      2.00000
     18     -33.1818      2.00000
     19     -33.1426      2.00000
     20     -33.1421      2.00000
     21     -32.8225      2.00000
     22     -32.8220      2.00000
     23     -32.7864      2.00000
     24     -32.7860      2.00000
     25     -32.7519      2.00000
     26     -32.7484      2.00000
     27     -32.6795      2.00000
     28     -32.6791      2.00000
     29     -32.6661      2.00000
     30     -32.6656      2.00000
     31     -32.6419      2.00000
     32     -32.6414      2.00000
     33     -32.6212      2.00000
     34     -32.6208      2.00000
     35     -32.5811      2.00000
     36     -32.5806      2.00000
     37     -32.5643      2.00000
     38     -32.5639      2.00000
     39     -32.5524      2.00000
     40     -32.5519      2.00000
     41     -32.5445      2.00000
     42     -32.5442      2.00000
     43     -32.5344      2.00000
     44     -32.5308      2.00000
     45     -32.5148      2.00000
     46     -32.5145      2.00000
     47     -32.5020      2.00000
     48     -32.4988      2.00000
     49     -32.4880      2.00000
     50     -32.4876      2.00000
     51     -32.4672      2.00000
     52     -32.4635      2.00000
     53     -32.4508      2.00000
     54     -32.4504      2.00000
     55     -32.4320      2.00000
     56     -32.4311      2.00000
     57     -32.4141      2.00000
     58     -32.4109      2.00000
     59     -32.4096      2.00000
     60     -32.4062      2.00000
[...]
    178       2.6427      0.00000
    179       2.7910      0.00000
    180       2.8015      0.00000
    181       3.0066      0.00000
    182       3.0498      0.00000
    183       3.1439      0.00000
    184       3.1560      0.00000
    185       3.4277      0.00000
    186       3.4759      0.00000
    187       3.5830      0.00000
    188       3.6200      0.00000
    189       3.8886      0.00000
    190       3.9314      0.00000
    191       4.0665      0.00000
    192       4.0924      0.00000

 soft charge-density along one line, spin component           1
         0         1         2         3         4         5         6         7         8         9
 total charge-density along one line

------------------------ aborting loop because EDIFF is reached ----------------------------------------

  FORCE on cell =-STRESS in cart. coord.  units (eV):
  Direction    XX          YY          ZZ          XY          YZ          ZX
  Alpha Z   272.35197   272.35197   272.35197
  Ewald   84943.95681 90896.76330-99224.20172     0.00000     0.00000   237.51299
  Hartree 92811.85817 97817.59656-87717.45991     0.00000    -0.00000   259.01709
  E(xc)   -1287.77175 -1283.99060 -1288.58564     0.00000    -0.00000     0.41587
  Local  ************************183883.66237    -0.00000    -0.00000  -504.95332
  n-local  -198.23198  -328.41723  -211.13910     0.72750    -0.15235   -16.18241
  augment  1202.29972  1258.00510  1203.48773    -0.00000    -0.00000     4.18614
  Kinetic  3058.92549  3245.52586  3087.22124    -0.81785    -0.47249     8.78680
  Fock        0.00000     0.00000     0.00000     0.00000     0.00000     0.00000
  Total     -27.69283    -8.75524     5.33693    -0.00000     0.00000   -11.21685
  in kB     -30.62332    -9.68173     5.90169    -0.00000     0.00000   -12.40383

 VOLUME and BASIS-vectors are now :
  energy-cutoff  :      520.00
  volume of cell :     1448.86
      direct lattice vectors                 reciprocal lattice vectors
     9.881349616  0.000000000  0.000000000     0.101200751 -0.000000000  0.013368312
     0.000000000  5.645286061  0.000000000     0.000000000  0.177138942 -0.000000000
    -3.430964609  0.000000000 25.973077496     0.000000000  0.000000000  0.038501406

  length of vectors
     9.881349616  5.645286061 26.198707464     0.102079889  0.177138942  0.038501406

 FORCES acting on ions
    electron-ion (+dipol)            ewald-force                    non-local-force                 convergence-correction
   -.107E+01 0.762E+02 0.267E+04   0.110E+01 -.762E+02 -.267E+04   0.459E-01 0.126E+00 -.148E+01   -.278E-03 -.831E-05 0.508E-03
   -.799E+02 0.795E+02 0.118E+03   0.798E+02 -.796E+02 -.118E+03   0.107E+00 0.136E+00 -.879E-01   0.439E-03 -.829E-05 0.112E-02
   0.382E+03 0.658E+02 0.146E+04   -.382E+03 -.659E+02 -.146E+04   0.354E+00 0.121E+00 0.689E+00   -.394E-03 -.124E-04 0.125E-02
   0.360E+03 0.671E+02 -.173E+04   -.360E+03 -.673E+02 0.173E+04   0.459E+00 0.183E+00 0.315E+00   0.186E-03 -.599E-05 0.787E-03
   -.107E+01 -.762E+02 0.267E+04   0.110E+01 0.762E+02 -.267E+04   0.459E-01 -.126E+00 -.148E+01   -.278E-03 0.831E-05 0.508E-03
   -.799E+02 -.795E+02 0.118E+03   0.798E+02 0.796E+02 -.118E+03   0.107E+00 -.136E+00 -.879E-01   0.439E-03 0.829E-05 0.112E-02
   0.382E+03 -.658E+02 0.146E+04   -.382E+03 0.659E+02 -.146E+04   0.354E+00 -.121E+00 0.689E+00   -.394E-03 0.124E-04 0.125E-02
   0.360E+03 -.671E+02 -.173E+04   -.360E+03 0.673E+02 0.173E+04   0.459E+00 -.183E+00 0.315E+00   0.186E-03 0.599E-05 0.787E-03
   -.350E+03 0.672E+02 0.141E+04   0.350E+03 -.673E+02 -.141E+04   -.489E+00 0.138E+00 0.596E+00   0.422E-03 -.276E-05 0.133E-02
   -.372E+03 0.657E+02 -.178E+04   0.373E+03 -.659E+02 0.178E+04   -.834E+00 0.190E+00 0.138E+01   -.205E-03 0.168E-05 0.552E-03
   0.781E+02 0.795E+02 -.416E+03   -.780E+02 -.796E+02 0.416E+03   0.761E-01 0.124E+00 -.795E+00   -.374E-03 -.519E-05 0.105E-02
   0.103E+00 0.761E+02 -.274E+04   -.758E+00 -.762E+02 0.274E+04   0.508E+00 0.218E+00 0.313E+01   0.231E-03 -.720E-05 -.135E-03
   -.350E+03 -.672E+02 0.141E+04   0.350E+03 0.673E+02 -.141E+04   -.489E+00 -.138E+00 0.596E+00   0.422E-03 0.276E-05 0.133E-02
   -.372E+03 -.657E+02 -.178E+04   0.373E+03 0.659E+02 0.178E+04   -.834E+00 -.190E+00 0.138E+01   -.205E-03 -.168E-05 0.552E-03
   0.781E+02 -.795E+02 -.416E+03   -.780E+02 0.796E+02 0.416E+03   0.761E-01 -.124E+00 -.795E+00   -.374E-03 0.519E-05 0.105E-02
   0.103E+00 -.761E+02 -.274E+04   -.758E+00 0.762E+02 0.274E+04   0.508E+00 -.218E+00 0.313E+01   0.231E-03 0.720E-05 -.135E-03
   0.473E+02 0.379E-12 0.138E+04   -.477E+02 0.288E-13 -.138E+04   0.381E+00 0.173E-16 0.550E+00   -.484E-03 0.124E-12 0.161E-02
   -.566E+02 0.132E-11 -.168E+04   0.572E+02 0.569E-13 0.168E+04   -.733E+00 -.729E-16 -.239E+01   0.562E-03 0.704E-13 0.804E-03
   0.212E+00 -.175E-12 -.376E+02   -.228E+00 -.583E-14 0.378E+02   -.314E-01 0.000E+00 -.114E-01   -.683E-04 0.698E-15 0.311E-03
   -.145E+03 -.953E-12 0.671E+03   0.141E+03 -.212E-13 -.668E+03   0.406E+01 -.111E-15 -.369E+01   0.184E-03 0.153E-14 0.854E-04
   0.108E+02 -.170E-12 0.318E+03   -.109E+02 0.101E-13 -.318E+03   0.935E-01 0.260E-17 0.901E-01   -.102E-03 -.135E-13 0.362E-03
   -.130E+02 0.465E-12 -.387E+03   0.131E+02 0.230E-13 0.388E+03   -.274E+00 -.189E-16 -.615E+00   0.117E-03 0.501E-14 0.183E-03
   0.225E+00 -.144E-11 -.376E+02   -.228E+00 0.121E-14 0.378E+02   -.434E-01 0.000E+00 -.246E-01   -.686E-04 -.739E-15 0.309E-03
   -.139E+03 0.107E-11 0.666E+03   0.135E+03 -.812E-15 -.662E+03   0.394E+01 -.111E-15 -.356E+01   0.184E-03 -.295E-14 0.852E-04
   0.121E+00 0.182E-12 -.374E+02   -.228E+00 0.786E-15 0.378E+02   0.833E-01 -.607E-17 -.194E+00   0.551E-04 0.262E-15 0.291E-03
   0.137E+03 0.377E-12 0.680E+03   -.133E+03 0.450E-14 -.676E+03   -.322E+01 -.104E-15 -.347E+01   -.166E-03 0.643E-14 0.149E-03
   0.174E+02 -.199E-12 -.510E+03   -.176E+02 0.135E-13 0.508E+03   -.249E+00 0.850E-16 0.274E+01   -.115E-03 -.853E-14 0.158E-03
   -.199E+02 0.265E-11 0.441E+03   0.198E+02 0.513E-14 -.439E+03   0.252E+00 -.118E-15 -.379E+01   0.913E-04 0.751E-14 0.274E-03
   0.111E+00 0.217E-13 -.374E+02   -.228E+00 0.105E-14 0.378E+02   0.924E-01 -.694E-17 -.204E+00   0.553E-04 -.339E-15 0.292E-03
   0.127E+03 0.481E-12 0.669E+03   -.123E+03 0.151E-13 -.665E+03   -.315E+01 -.104E-15 -.335E+01   -.166E-03 -.769E-14 0.149E-03
   0.170E+02 -.132E-12 -.508E+03   -.173E+02 0.129E-14 0.506E+03   -.236E+00 0.841E-16 0.274E+01   -.115E-03 0.854E-14 0.158E-03
   -.196E+02 0.373E-12 0.439E+03   0.195E+02 -.663E-14 -.436E+03   0.252E+00 -.118E-15 -.380E+01   0.917E-04 -.845E-14 0.274E-03
   -.167E+01 0.125E-10 0.115E+02   0.178E-13 -.154E-13 -.853E-12   0.167E+01 -.387E-15 -.115E+02   0.110E-03 0.165E-12 0.184E-01

 POSITION                                       TOTAL-FORCE (eV/Angst)
      8.77509      0.00111      8.35891         0.076257      0.093765     -0.017061
      3.22237      0.00111     12.99220         0.012849      0.018837     -0.204558
      6.00558      0.00111     10.66983         0.100113      0.045319      0.142179
      0.45286      0.00111     15.30312        -0.055417      0.007091      0.354367
      8.77509      2.82153      8.35891         0.076257     -0.093765     -0.017061
      3.22237      2.82153     12.99220         0.012849     -0.018837     -0.204558
      6.00558      2.82153     10.66983         0.100113     -0.045319      0.142179
      0.45286      2.82153     15.30312        -0.055417     -0.007091      0.354367
      1.05635      0.00111     10.67373         0.223833      0.049592     -0.093604
      5.38498      0.00111     15.30702        -0.129333      0.012835      0.309299
     -1.71316      0.00111     12.98465         0.168550      0.046558     -0.155169
      2.61547      0.00111     17.61794        -0.146245      0.098678     -0.879158
      1.05635      2.82153     10.67373         0.223833     -0.049592     -0.093604
      5.38498      2.82153     15.30702        -0.129333     -0.012835      0.309299
     -1.71316      2.82153     12.98465         0.168550     -0.046558     -0.155169
      2.61547      2.82153     17.61794        -0.146245     -0.098678     -0.879158
     -1.40971      1.41132     10.67178        -0.022774     -0.000000     -0.153794
      2.91892      1.41132     15.30507        -0.136232      0.000000      0.535308
      5.69528      1.41132     12.98843        -0.047305      0.000000      0.208347
      1.36665      1.41132      8.35513        -0.217300     -0.000000     -0.047415
     -1.40971      4.23396     10.67178        -0.003768     -0.000000     -0.157900
      2.91892      4.23396     15.30507        -0.211790      0.000000      0.394733
      5.69528      4.23396     12.98843        -0.045947      0.000000      0.200952
      1.36665      4.23396      8.35513        -0.278190      0.000000     -0.006612
      0.75461      1.41132     12.98843        -0.023660      0.000000      0.163862
      6.30732      1.41132      8.35513         0.517584      0.000000      0.071393
     -2.02175      1.41132     15.30507        -0.499186      0.000000      0.793194
      3.53097      1.41132     10.67178         0.213340     -0.000000     -1.006336
      0.75461      4.23396     12.98843        -0.023872      0.000000      0.164683
      6.30732      4.23396      8.35513         0.570532      0.000000      0.133656
     -2.02175      4.23396     15.30507        -0.500148      0.000000      0.810028
      3.53097      4.23396     10.67178         0.207501     -0.000000     -1.016686
    total drift:                               -0.001206      0.000000     -0.000113

  FREE ENERGIE OF THE ION-ELECTRON SYSTEM (eV)
  free  energy   TOTEN  =      -178.54085007 eV

  energy  without entropy=     -178.52535154  energy(sigma->0) =     -178.53568389

 writing wavefunctions