 vasp.6.5.0 16Dec24 (build Apr 17 2025 17:55:45) complex

 executed on             LinuxIFC date 2025.06.04  15:22:18

 INCAR:
   ISTART = 1
   ICHARG = 11
   PREC = N
   LREAL = .FALSE.
   LORBIT = 11
   ENCUT = 520
   ALGO = N
   NELM = 500
   EDIFF = 1E-05
   IBRION = -1
   ISIF = 3
   NSW = 0
   EDIFFG = -0.01
   ISMEAR = 1
   SIGMA = 0.1

 POTCAR:    PAW_PBE Ti_sv 26Sep2005
 POTCAR:    PAW_PBE Ga_d 06Jul2010
 POTCAR:    PAW_PBE Al 04Jan2001
|           W    W    AA    RRRRR   N    N  II  N    N   GGGG   !!!           |
|           W    W   A  A   R    R  NN   N  II  NN   N  G    G  !!!           |
|           W    W  A    A  R    R  N N  N  II  N N  N  G       !!!           |
|           W WW W  AAAAAA  RRRRR   N  N N  II  N  N N  G  GGG   !            |
|           WW  WW  A    A  R   R   N   NN  II  N   NN  G    G                |
|           W    W  A    A  R    R  N    N  II  N    N   GGGG   !!!           |
|     For optimal performance we recommend to set                             |
|       NCORE = 2 up to number-of-cores-per-socket                            |
|     This setting can greatly improve the performance of VASP for DFT.       |
|     The default, NCORE=1 might be grossly inefficient on modern             |
|     multi-core architectures or massively parallel machines. Do your        |
|     Unfortunately you need to use the default for GW and RPA                |
|     calculations (for HF NCORE is supported but not extensively tested      |
|     yet).                                                                   |

   TITEL  = PAW_PBE Ti_sv 26Sep2005
   POMASS =   47.880; ZVAL   =   12.000    mass and valenz
   ENMAX  =  274.610; ENMIN  =  205.957 eV

   TITEL  = PAW_PBE Ga_d 06Jul2010
   POMASS =   69.723; ZVAL   =   13.000    mass and valenz
   ENMAX  =  282.691; ENMIN  =  212.018 eV

   TITEL  = PAW_PBE Al 04Jan2001
   POMASS =   26.981; ZVAL   =    3.000    mass and valenz
   ENMAX  =  240.300; ENMIN  =  180.225 eV

  PAW_PBE Ti_sv 26Sep2005               :
  PAW_PBE Ga_d 06Jul2010                :
  PAW_PBE Al 04Jan2001                  :

 POSCAR: Ti1 Al1
  positions in direct lattice
  velocities in cartesian coordinates

 exchange-correlation table for PE
   RHO(1)=    0.500       N(1)  =     2000
   RHO(2)=  100.500       N(2)  =     4000

 ion  position               nearest neighbor table
   1  0.000  0.000  0.001-   3 2.82   5 2.82   3 2.82   5 2.82   9 2.84  11 2.84  13 2.84  15 2.84
                            10 2.85  14 2.85  12 2.85  16 2.85
   2  0.000  0.000  0.499-   4 2.82   6 2.82   4 2.82   6 2.82   9 2.84  11 2.84  13 2.84  15 2.84
                            10 2.85  14 2.85  12 2.85  16 2.85
   3  0.000  0.500  0.001-   1 2.82   7 2.82   1 2.82   7 2.82   9 2.84  13 2.84  11 2.84  15 2.84
                            10 2.85  12 2.85  14 2.85  16 2.85
   4  0.000  0.500  0.499-   2 2.82   8 2.82   2 2.82   8 2.82   9 2.84  13 2.84  11 2.84  15 2.84
                            10 2.85  12 2.85  14 2.85  16 2.85
   5  0.500  0.000  0.001-   1 2.82   7 2.82   1 2.82   7 2.82   9 2.84  13 2.84  11 2.84  15 2.84
                            10 2.85  12 2.85  14 2.85  16 2.85
   6  0.500  0.000  0.499-   2 2.82   8 2.82   2 2.82   8 2.82   9 2.84  13 2.84  11 2.84  15 2.84
                            10 2.85  12 2.85  14 2.85  16 2.85
   7  0.500  0.500  0.001-   3 2.82   5 2.82   3 2.82   5 2.82   9 2.84  11 2.84  13 2.84  15 2.84
                            10 2.85  14 2.85  12 2.85  16 2.85
   8  0.500  0.500  0.499-   4 2.82   6 2.82   4 2.82   6 2.82   9 2.84  11 2.84  13 2.84  15 2.84
                            10 2.85  14 2.85  12 2.85  16 2.85
   9  0.250  0.250  0.250-  11 2.82  13 2.82  11 2.82  13 2.82   5 2.84   6 2.84   7 2.84   8 2.84
                             1 2.84   2 2.84   3 2.84   4 2.84
  10  0.250  0.250  0.750-  12 2.82  14 2.82  12 2.82  14 2.82   5 2.85   6 2.85   7 2.85   8 2.85
                             1 2.85   2 2.85   3 2.85   4 2.85
  11  0.250  0.750  0.250-   9 2.82  15 2.82   9 2.82  15 2.82   5 2.84   6 2.84   7 2.84   8 2.84
                             1 2.84   2 2.84   3 2.84   4 2.84
  12  0.250  0.750  0.750-  10 2.82  16 2.82  10 2.82  16 2.82   5 2.85   6 2.85   7 2.85   8 2.85
                             1 2.85   2 2.85   3 2.85   4 2.85
  13  0.750  0.250  0.250-   9 2.82  15 2.82  15 2.82   9 2.82   5 2.84   6 2.84   7 2.84   8 2.84
                             1 2.84   2 2.84   3 2.84   4 2.84
  14  0.750  0.250  0.750-  10 2.82  16 2.82  16 2.82  10 2.82   5 2.85   6 2.85   7 2.85   8 2.85
                             1 2.85   2 2.85   3 2.85   4 2.85
  15  0.750  0.750  0.250-  11 2.82  13 2.82  13 2.82  11 2.82   5 2.84   6 2.84   7 2.84   8 2.84
                             1 2.84   2 2.84   3 2.84   4 2.84
  16  0.750  0.750  0.750-  12 2.82  14 2.82  14 2.82  12 2.82   5 2.85   6 2.85   7 2.85   8 2.85
                             1 2.85   2 2.85   3 2.85   4 2.85

  LATTYP: Found a simple tetragonal cell.
 ALAT       =     5.6452860611
 C/A-ratio  =     1.4365937127

  Lattice vectors:

 A1 = (   5.6452860611,   0.0000000000,   0.0000000000)
 A2 = (   0.0000000000,   5.6452860611,   0.0000000000)
 A3 = (   0.0000000000,   0.0000000000,   8.1099824619)

Analysis of symmetry for initial positions (statically):
 Subroutine PRICEL returns:
 Original cell was already a primitive cell.

 Routine SETGRP: Setting up the symmetry group for a
 simple tetragonal supercell.

 Subroutine GETGRP returns: Found 16 space group operations
 (whereof  2 operations were pure point group operations)
 out of a pool of 16 trial point group operations.

The static configuration has the point symmetry C_1h.
 The point group associated with its full space group is D_4h.

Analysis of symmetry for dynamics (positions and initial velocities):
 Subroutine PRICEL returns:
 Original cell was already a primitive cell.

 Routine SETGRP: Setting up the symmetry group for a
 simple tetragonal supercell.

 Subroutine GETGRP returns: Found 16 space group operations
 (whereof  2 operations were pure point group operations)
 out of a pool of 16 trial point group operations.

The dynamic configuration has the point symmetry C_1h.
 The point group associated with its full space group is D_4h.

 Subroutine INISYM returns: Found 16 space group operations
 (whereof  2 operations are pure point group operations),
 and found     1 'primitive' translations

                                     Primitive cell

  volume of cell :     258.4591

  direct lattice vectors                    reciprocal lattice vectors
     5.645286061  0.000000000  0.000000000     0.177138942  0.000000000  0.000000000
     0.000000000  5.645286061  0.000000000     0.000000000  0.177138942  0.000000000
     0.000000000  0.000000000  8.109982462     0.000000000  0.000000000  0.123304829

  length of vectors
     5.645286061  5.645286061  8.109982462     0.177138942  0.177138942  0.123304829

  position of ions in fractional coordinates (direct lattice)
     0.000197156  0.000197156  0.000617192
     0.000197156  0.000197156  0.499382808
     0.000197156  0.499802844  0.000617192
     0.000197156  0.499802844  0.499382808
     0.499802844  0.000197156  0.000617192
     0.499802844  0.000197156  0.499382808
     0.499802844  0.499802844  0.000617192
     0.499802844  0.499802844  0.499382808
     0.250000000  0.250000000  0.250000000
     0.250000000  0.250000000  0.750000000
     0.250000000  0.750000000  0.250000000
     0.250000000  0.750000000  0.750000000
     0.750000000  0.250000000  0.250000000
     0.750000000  0.250000000  0.750000000
     0.750000000  0.750000000  0.250000000
     0.750000000  0.750000000  0.750000000

  ion indices of the primitive-cell ions
   primitive index   ion index
                 1           1
                 2           2
                 3           3
                 4           4
                 5           5
                 6           6
                 7           7
                 8           8
                 9           9
                10          10
                11          11
                12          12
                13          13
                14          14
                15          15
                16          16

 KPOINTS: K-Path Generated by VASPKIT.

Interpolating k-points between supplied coordinates.

 Line segments in fractional coordinates (reciprocal lattice):
    0.000000  0.000000  0.000000  ...  0.000000  0.500000  0.000000
    0.000000  0.500000  0.000000  ...  0.500000  0.500000  0.000000
    0.500000  0.500000  0.000000  ...  0.000000  0.000000  0.000000
    0.000000  0.000000  0.000000  ...  0.000000  0.000000  0.500000
    0.000000  0.000000  0.500000  ...  0.000000  0.500000  0.500000
    0.000000  0.500000  0.500000  ...  0.500000  0.500000  0.500000
    0.500000  0.500000  0.500000  ...  0.000000  0.000000  0.500000
    0.000000  0.500000  0.000000  ...  0.000000  0.500000  0.500000
    0.500000  0.500000  0.000000  ...  0.500000  0.500000  0.500000

 Generated    20 points on each line segment, for a total of    180 k-points:

 Following reciprocal coordinates:
            Coordinates               Weight
  0.000000  0.000000  0.000000      0.005556
  0.000000  0.026316  0.000000      0.005556
  0.000000  0.052632  0.000000      0.005556
  0.000000  0.078947  0.000000      0.005556
  0.000000  0.105263  0.000000      0.005556
  0.000000  0.131579  0.000000      0.005556
  0.000000  0.157895  0.000000      0.005556
  0.000000  0.184211  0.000000      0.005556
  0.000000  0.210526  0.000000      0.005556
  0.000000  0.236842  0.000000      0.005556
  0.000000  0.263158  0.000000      0.005556
  0.000000  0.289474  0.000000      0.005556
  0.000000  0.315789  0.000000      0.005556
  0.000000  0.342105  0.000000      0.005556
  0.000000  0.368421  0.000000      0.005556
  0.000000  0.394737  0.000000      0.005556
  0.000000  0.421053  0.000000      0.005556
  0.000000  0.447368  0.000000      0.005556
  0.000000  0.473684  0.000000      0.005556
  0.000000  0.500000  0.000000      0.005556
  0.000000  0.500000  0.000000      0.005556
  0.026316  0.500000  0.000000      0.005556
  0.052632  0.500000  0.000000      0.005556
  0.078947  0.500000  0.000000      0.005556
  0.105263  0.500000  0.000000      0.005556
  0.131579  0.500000  0.000000      0.005556
  0.157895  0.500000  0.000000      0.005556
  0.184211  0.500000  0.000000      0.005556
  0.210526  0.500000  0.000000      0.005556
  0.236842  0.500000  0.000000      0.005556
  0.263158  0.500000  0.000000      0.005556
  0.289474  0.500000  0.000000      0.005556
  0.315789  0.500000  0.000000      0.005556
  0.342105  0.500000  0.000000      0.005556
  0.368421  0.500000  0.000000      0.005556
  0.394737  0.500000  0.000000      0.005556
  0.421053  0.500000  0.000000      0.005556
  0.447368  0.500000  0.000000      0.005556
  0.473684  0.500000  0.000000      0.005556
  0.500000  0.500000  0.000000      0.005556
  0.500000  0.500000  0.000000      0.005556
  0.473684  0.473684  0.000000      0.005556
  0.447368  0.447368  0.000000      0.005556
  0.421053  0.421053  0.000000      0.005556
[...]
 k-point   172 :   0.5000 0.5000 0.2895  plane waves:    6916
 k-point   173 :   0.5000 0.5000 0.3158  plane waves:    6904
 k-point   174 :   0.5000 0.5000 0.3421  plane waves:    6896
 k-point   175 :   0.5000 0.5000 0.3684  plane waves:    6904
 k-point   176 :   0.5000 0.5000 0.3947  plane waves:    6904
 k-point   177 :   0.5000 0.5000 0.4211  plane waves:    6920
 k-point   178 :   0.5000 0.5000 0.4474  plane waves:    6920
 k-point   179 :   0.5000 0.5000 0.4737  plane waves:    6912
 k-point   180 :   0.5000 0.5000 0.5000  plane waves:    6912

 maximum and minimum number of plane-waves per node :      7014     6892

 maximum number of plane-waves:      7014
 maximum index in each direction:
   IXMAX=   10   IYMAX=   10   IZMAX=   15
   IXMIN=  -10   IYMIN=  -10   IZMIN=  -15

 serial   3D FFT for wavefunctions
 parallel 3D FFT for charge:
    minimum data exchange during FFTs selected (reduces bandwidth)

 initial charge density was supplied:
 number of electron     129.9999750 magnetization
 keeping initial charge density in first step

 Maximum index for augmentation-charges          454 (set IRDMAX)

 First call to EWALD:  gamma=   0.278
 Maximum number of real-space cells   3x   3x   2
 Maximum number of reciprocal cells   3x   3x   3

--------------------------------------- Ionic step        1  -------------------------------------------

--------------------------------------- Iteration      1(   1)  ---------------------------------------

 eigenvalue-minimisations  : 56576
 total energy-change (2. order) :-0.9762193E+02  (-0.6438348E-07)
 number of electron     129.9999750 magnetization
 augmentation part      129.9999750 magnetization

 Free energy of the ion-electron system (eV)
  alpha Z        PSCENC =       381.68433306
  Ewald energy   TEWEN  =     -9869.40651717
  -Hartree energ DENC   =     -4556.37495082
  -exchange      EXHF   =         0.00000000
  -V(xc)+E(xc)   XCENC  =       349.49089552
  PAW double counting   =     14886.21537697   -14813.91545696
  entropy T*S    EENTRO =         0.00854360
  eigenvalues    EBANDS =     -1703.60045557
  atomic energy  EATOM  =     15228.27630495
  Solvation  Ediel_sol  =         0.00000000
  free energy    TOTEN  =       -97.62192642 eV

  energy without entropy =      -97.63047002  energy(sigma->0) =      -97.62477429

--------------------------------------- Iteration      1(   2)  ---------------------------------------

 eigenvalue-minimisations  : 36352
 total energy-change (2. order) :-0.1898115E-07  (-0.1881858E-07)
 number of electron     129.9999750 magnetization
 augmentation part      129.9999750 magnetization

 Free energy of the ion-electron system (eV)
  alpha Z        PSCENC =       381.68433306
  Ewald energy   TEWEN  =     -9869.40651717
  -Hartree energ DENC   =     -4556.37495082
  -exchange      EXHF   =         0.00000000
  -V(xc)+E(xc)   XCENC  =       349.49089552
  PAW double counting   =     14886.21537697   -14813.91545696
  entropy T*S    EENTRO =         0.00854360
  eigenvalues    EBANDS =     -1703.60045559
  atomic energy  EATOM  =     15228.27630495
  Solvation  Ediel_sol  =         0.00000000
  free energy    TOTEN  =       -97.62192644 eV

  energy without entropy =      -97.63047004  energy(sigma->0) =      -97.62477431

 average (electrostatic) potential at core
  the test charge radii are     1.0397  1.0314  1.0406
  (the norm of the test charge is              1.0000)
       1 -72.3270       2 -72.3270       3 -72.3270       4 -72.3270       5 -72.3270
       6 -72.3270       7 -72.3270       8 -72.3270       9 -61.6137      10 -71.3205
      11 -71.4146      12 -71.3239      13 -71.4146      14 -71.3239      15 -71.3096
      16 -71.3378

 E-fermi :   8.2561     XC(G=0): -11.1518     alpha+bet :-16.1915

 val. band max:        8.2547288000   @ k =   0.4737   0.4737   0.5000
 cond. band min:       8.2566882822   @ k =   0.2895   0.5000   0.0000
 fundamental gap:      0.0019594822
 Fermi energy:         8.2560774732

 k-point     1 :       0.0000    0.0000    0.0000
  band No.  band energies     occupation
      1     -48.3377      2.00000
      2     -48.3371      2.00000
      3     -48.2796      2.00000
      4     -48.2796      2.00000
      5     -48.2791      2.00000
      6     -48.2791      2.00000
      7     -48.2236      2.00000
      8     -48.2232      2.00000
      9     -24.7705      2.00000
     10     -24.7668      2.00000
     11     -24.7582      2.00000
     12     -24.7555      2.00000
     13     -24.7533      2.00000
     14     -24.7363      2.00000
     15     -24.6980      2.00000
     16     -24.6980      2.00000
     17     -24.6953      2.00000
     18     -24.6953      2.00000
     19     -24.6901      2.00000
     20     -24.6901      2.00000
     21     -24.6787      2.00000
     22     -24.6787      2.00000
     23     -24.6370      2.00000
     24     -24.6261      2.00000
     25     -24.2878      2.00000
     26     -24.2878      2.00000
     27     -24.2873      2.00000
     28     -24.2873      2.00000
     29     -24.2514      2.00000
     30     -24.2508      2.00000
     31     -24.2406      2.00000
     32     -24.2399      2.00000
     33      -6.1325      2.00000
     34      -6.1130      2.00000
     35      -6.0901      2.00000
     36      -6.0901      2.00000
     37      -6.0629      2.00000
     38      -0.9050      2.00000
     39       0.5713      2.00000
     40       2.9184      2.00000
     41       3.0201      2.00000
     42       3.4287      2.00000
     43       3.6081      2.00000
     44       3.7449      2.00000
     45       3.7449      2.00000
     46       3.7833      2.00000
     47       5.0722      2.00000
     48       5.3469      2.00000
     49       5.3469      2.00000
     50       5.7756      2.00000
     51       6.0063      2.00000
     52       6.0063      2.00000
     53       6.4768      2.00000
     54       6.5804      2.00000
     55       6.6019      2.00000
     56       7.1165      2.00000
     57       7.1399      2.00000
     58       7.1399      2.00000
     59       7.1468      2.00000
     60       7.4581      2.00000
[...]
    114      16.6258      0.00000
    115      16.6258      0.00000
    116      17.8254      0.00000
    117      17.9512      0.00000
    118      18.6678      0.00000
    119      18.6678      0.00000
    120      19.0169      0.00000
    121      19.0169      0.00000
    122      19.4048      0.00000
    123      19.4048      0.00000
    124      19.9649      0.00000
    125      20.5197      0.00000
    126      20.5197      0.00000
    127      20.6870      0.00000
    128      20.6870      0.00000

[...]

 k-point   180 :       0.5000    0.5000    0.5000
  band No.  band energies     occupation
      1     -48.2807      2.00000
      2     -48.2807      2.00000
      3     -48.2801      2.00000
      4     -48.2801      2.00000
      5     -48.2801      2.00000
      6     -48.2801      2.00000
      7     -48.2795      2.00000
      8     -48.2795      2.00000
      9     -24.6885      2.00000
     10     -24.6878      2.00000
     11     -24.6878      2.00000
     12     -24.6878      2.00000
     13     -24.6875      2.00000
     14     -24.6875      2.00000
     15     -24.6874      2.00000
     16     -24.6870      2.00000
     17     -24.5154      2.00000
     18     -24.5152      2.00000
     19     -24.5113      2.00000
     20     -24.5111      2.00000
     21     -24.5032      2.00000
     22     -24.5032      2.00000
     23     -24.5032      2.00000
     24     -24.5032      2.00000
     25     -24.4984      2.00000
     26     -24.4984      2.00000
     27     -24.4984      2.00000
     28     -24.4984      2.00000
     29     -24.4905      2.00000
     30     -24.4904      2.00000
     31     -24.4863      2.00000
     32     -24.4863      2.00000
     33      -6.1270      2.00000
     34      -6.1142      2.00000
     35      -6.0903      2.00000
     36      -6.0903      2.00000
     37      -6.0603      2.00000
     38       1.0613      2.00000
     39       1.9338      2.00000
     40       1.9338      2.00000
     41       1.9847      2.00000
     42       1.9892      2.00000
     43       1.9905      2.00000
     44       1.9924      2.00000
     45       1.9924      2.00000
     46       6.1259      2.00000
     47       6.2234      2.00000
     48       6.2234      2.00000
     49       6.2275      2.00000
     50       6.2282      2.00000
     51       6.2354      2.00000
     52       6.2446      2.00000
     53       6.2446      2.00000
     54       7.8229      2.00000
     55       7.8229      2.00000
     56       7.8709      2.00000
     57       7.8997      2.00001
     58       7.9036      2.00001
     59       7.9036      2.00001
     60       7.9060      2.00001
[...]
    114      17.5078      0.00000
    115      17.5163      0.00000
    116      17.6402      0.00000
    117      18.0406      0.00000
    118      18.6539      0.00000
    119      18.7039      0.00000
    120      18.7041      0.00000
    121      18.7119      0.00000
    122      18.7239      0.00000
    123      18.7494      0.00000
    124      18.7496      0.00000
    125      18.7895      0.00000
    126      18.7899      0.00000
    127      18.7937      0.00000
    128      18.7992      0.00000

 soft charge-density along one line, spin component           1
         0         1         2         3         4         5         6         7         8         9
 total charge-density along one line

------------------------ aborting loop because EDIFF is reached ----------------------------------------

 total charge

# of ion       s       p       d       tot
    1        2.198   6.118   1.957  10.273
    2        2.198   6.118   1.957  10.273
    3        2.198   6.118   1.957  10.273
    4        2.198   6.118   1.957  10.273
    5        2.198   6.118   1.957  10.273
    6        2.198   6.118   1.957  10.273
    7        2.198   6.118   1.957  10.273
    8        2.198   6.118   1.957  10.273
    9        0.874   0.910   9.959  11.743
   10        0.406   0.424   0.000   0.830
   11        0.409   0.417   0.000   0.826
   12        0.405   0.425   0.000   0.830
   13        0.409   0.417   0.000   0.826
   14        0.405   0.425   0.000   0.830
   15        0.404   0.429   0.000   0.833
   16        0.406   0.422   0.000   0.828
tot         21.301  52.814  25.613  99.728

  FORCE on cell =-STRESS in cart. coord.  units (eV):
  Direction    XX          YY          ZZ          XY          YZ          ZX
  Alpha Z   381.68433   381.68433   381.68433
  Ewald   -2823.08816 -2823.08816 -4223.25302     0.00000     0.00000     0.00000
  Hartree  1925.97776  1925.97776   701.14114    -0.00000    -0.00000    -0.00000
  E(xc)    -646.57082  -646.57082  -648.13739    -0.00000    -0.00000     0.00000
  Local    -914.48797  -914.48797  1737.42938    -0.00000     0.00000    -0.00000
  n-local  -150.86411  -120.73862   -81.11869    -1.61997     0.00000     0.00000
  augment   618.36451   618.36451   598.31706    -0.00000     0.00000    -0.00000
  Kinetic  1612.83730  1584.75161  1528.83354     0.67731    -0.00000    -0.00000
  Fock        0.00000     0.00000     0.00000     0.00000     0.00000     0.00000
  Total       4.87273     4.87273    -5.10365    -0.00000     0.00000     0.00000
  in kB      30.20588    30.20588   -31.63732    -0.00000     0.00000     0.00000

 VOLUME and BASIS-vectors are now :
  energy-cutoff  :      520.00
  volume of cell :      258.46
      direct lattice vectors                 reciprocal lattice vectors
     5.645286061  0.000000000  0.000000000     0.177138942  0.000000000  0.000000000
     0.000000000  5.645286061  0.000000000     0.000000000  0.177138942  0.000000000
     0.000000000  0.000000000  8.109982462     0.000000000  0.000000000  0.123304829

  length of vectors
     5.645286061  5.645286061  8.109982462     0.177138942  0.177138942  0.123304829

 FORCES acting on ions
    electron-ion (+dipol)            ewald-force                    non-local-force                 convergence-correction
   0.692E+02 0.692E+02 0.163E+03   -.694E+02 -.694E+02 -.163E+03   0.173E+00 0.173E+00 0.203E+00   -.170E-01 -.170E-01 0.103E+00
   0.692E+02 0.692E+02 -.163E+03   -.694E+02 -.694E+02 0.163E+03   0.173E+00 0.173E+00 -.203E+00   -.170E-01 -.170E-01 -.103E+00
   0.692E+02 -.692E+02 0.163E+03   -.694E+02 0.694E+02 -.163E+03   0.173E+00 -.173E+00 0.203E+00   -.170E-01 0.170E-01 0.103E+00
   0.692E+02 -.692E+02 -.163E+03   -.694E+02 0.694E+02 0.163E+03   0.173E+00 -.173E+00 -.203E+00   -.170E-01 0.170E-01 -.103E+00
   -.692E+02 0.692E+02 0.163E+03   0.694E+02 -.694E+02 -.163E+03   -.173E+00 0.173E+00 0.203E+00   0.170E-01 -.170E-01 0.103E+00
   -.692E+02 0.692E+02 -.163E+03   0.694E+02 -.694E+02 0.163E+03   -.173E+00 0.173E+00 -.203E+00   0.170E-01 -.170E-01 -.103E+00
   -.692E+02 -.692E+02 0.163E+03   0.694E+02 0.694E+02 -.163E+03   -.173E+00 -.173E+00 0.203E+00   0.170E-01 0.170E-01 0.103E+00
   -.692E+02 -.692E+02 -.163E+03   0.694E+02 0.694E+02 0.163E+03   -.173E+00 -.173E+00 -.203E+00   0.170E-01 0.170E-01 -.103E+00
   0.173E-12 0.106E-11 -.146E-11   0.127E-12 -.169E-13 0.257E-13   -.165E-23 -.331E-23 0.000E+00   -.184E-11 0.180E-11 -.255E-11
   0.106E-13 -.566E-12 0.695E-13   0.392E-13 0.406E-14 0.296E-14   -.331E-23 -.662E-23 0.000E+00   0.205E-12 -.346E-12 0.344E-12
   0.113E-13 -.675E-13 -.533E-12   -.815E-14 0.515E-15 0.690E-14   -.132E-22 -.331E-23 -.132E-22   0.584E-13 -.204E-12 -.632E-12
   0.134E-13 0.846E-12 0.286E-12   0.155E-13 0.206E-13 -.578E-14   0.000E+00 0.000E+00 0.662E-23   0.502E-12 0.351E-12 0.625E-12
   -.152E-13 0.599E-12 0.226E-12   -.483E-14 -.439E-14 0.228E-13   0.000E+00 0.132E-22 0.000E+00   0.122E-12 0.212E-12 -.290E-12
   0.789E-14 -.140E-12 0.627E-12   0.161E-13 0.347E-14 0.101E-13   0.165E-23 -.496E-23 0.132E-22   -.194E-12 -.303E-12 0.278E-12
   0.118E-13 0.440E-12 -.145E-12   0.393E-13 0.278E-13 -.169E-13   0.000E+00 -.165E-23 0.000E+00   -.414E-13 -.199E-12 -.530E-12
   0.842E-14 0.465E-12 0.256E-12   0.117E-13 0.411E-14 0.177E-13   0.000E+00 0.000E+00 0.000E+00   -.484E-12 0.298E-12 0.516E-12
   -.151E-11 -.515E-11 0.477E-10   -.344E-13 -.176E-13 0.350E-13   -.555E-16 0.555E-16 0.278E-16   -.331E-11 0.854E-11 -.294E-10

 POSITION                                       TOTAL-FORCE (eV/Angst)
      0.00111      0.00111      0.00501         0.014814      0.014814      0.014515
      0.00111      0.00111      4.04999         0.014814      0.014814     -0.014515
      0.00111      2.82153      0.00501         0.014814     -0.014814      0.014515
      0.00111      2.82153      4.04999         0.014814     -0.014814     -0.014515
      2.82153      0.00111      0.00501        -0.014814      0.014814      0.014515
      2.82153      0.00111      4.04999        -0.014814      0.014814     -0.014515
      2.82153      2.82153      0.00501        -0.014814     -0.014814      0.014515
      2.82153      2.82153      4.04999        -0.014814     -0.014814     -0.014515
      1.41132      1.41132      2.02750        -0.000000      0.000000      0.000000
      1.41132      1.41132      6.08249         0.000000      0.000000      0.000000
      1.41132      4.23396      2.02750         0.000000      0.000000      0.000000
      1.41132      4.23396      6.08249         0.000000      0.000000      0.000000
      4.23396      1.41132      2.02750         0.000000      0.000000      0.000000
      4.23396      1.41132      6.08249         0.000000      0.000000     -0.000000
      4.23396      4.23396      2.02750         0.000000      0.000000      0.000000
      4.23396      4.23396      6.08249         0.000000      0.000000      0.000000
    total drift:                               -0.000000      0.000000      0.000000

  FREE ENERGIE OF THE ION-ELECTRON SYSTEM (eV)
  free  energy   TOTEN  =       -97.62192644 eV

  energy  without entropy=      -97.63047004  energy(sigma->0) =      -97.62477431

 writing wavefunctions

 total charge

# of ion       s       p       d       tot
    1        2.198   6.118   1.957  10.273
    2        2.198   6.118   1.957  10.273
    3        2.198   6.118   1.957  10.273
    4        2.198   6.118   1.957  10.273
    5        2.198   6.118   1.957  10.273
    6        2.198   6.118   1.957  10.273
    7        2.198   6.118   1.957  10.273
    8        2.198   6.118   1.957  10.273
    9        0.874   0.910   9.959  11.743
   10        0.406   0.424   0.000   0.830
   11        0.409   0.417   0.000   0.826
   12        0.405   0.425   0.000   0.830
   13        0.409   0.417   0.000   0.826
   14        0.405   0.425   0.000   0.830
   15        0.404   0.429   0.000   0.833
   16        0.406   0.422   0.000   0.828
tot         21.301  52.814  25.613  99.728