 vasp.6.5.0 16Dec24 (build Apr 17 2025 17:55:45) complex

 executed on             LinuxIFC date 2025.06.04  15:34:55

 INCAR:
   ISTART = 1
   ICHARG = 11
   PREC = N
   LREAL = .FALSE.
   LORBIT = 11
   ENCUT = 520
   ALGO = N
   NELM = 500
   EDIFF = 1E-05
   IBRION = -1
   ISIF = 3
   NSW = 0
   EDIFFG = -0.01
   ISMEAR = 1
   SIGMA = 0.1

 POTCAR:    PAW_PBE Ti_sv 26Sep2005
 POTCAR:    PAW_PBE Al 04Jan2001
 POTCAR:    PAW_PBE Ga_d 06Jul2010
|           W    W    AA    RRRRR   N    N  II  N    N   GGGG   !!!           |
|           W    W   A  A   R    R  NN   N  II  NN   N  G    G  !!!           |
|           W    W  A    A  R    R  N N  N  II  N N  N  G       !!!           |
|           W WW W  AAAAAA  RRRRR   N  N N  II  N  N N  G  GGG   !            |
|           WW  WW  A    A  R   R   N   NN  II  N   NN  G    G                |
|           W    W  A    A  R    R  N    N  II  N    N   GGGG   !!!           |
|     For optimal performance we recommend to set                             |
|       NCORE = 2 up to number-of-cores-per-socket                            |
|     This setting can greatly improve the performance of VASP for DFT.       |
|     The default, NCORE=1 might be grossly inefficient on modern             |
|     multi-core architectures or massively parallel machines. Do your        |
|     Unfortunately you need to use the default for GW and RPA                |
|     calculations (for HF NCORE is supported but not extensively tested      |
|     yet).                                                                   |

   TITEL  = PAW_PBE Ti_sv 26Sep2005
   POMASS =   47.880; ZVAL   =   12.000    mass and valenz
   ENMAX  =  274.610; ENMIN  =  205.957 eV

   TITEL  = PAW_PBE Al 04Jan2001
   POMASS =   26.981; ZVAL   =    3.000    mass and valenz
   ENMAX  =  240.300; ENMIN  =  180.225 eV

   TITEL  = PAW_PBE Ga_d 06Jul2010
   POMASS =   69.723; ZVAL   =   13.000    mass and valenz
   ENMAX  =  282.691; ENMIN  =  212.018 eV

  PAW_PBE Ti_sv 26Sep2005               :
  PAW_PBE Al 04Jan2001                  :
  PAW_PBE Ga_d 06Jul2010                :

 POSCAR: Ti1 Al1
  positions in direct lattice
  velocities in cartesian coordinates

 exchange-correlation table for PE
   RHO(1)=    0.500       N(1)  =     2000
   RHO(2)=  100.500       N(2)  =     4000

 ion  position               nearest neighbor table
   1  0.000  0.000  0.019-   9 2.78  11 2.78  13 2.78  15 2.78  10 2.85  14 2.85  12 2.85  16 2.85

   2  0.000  0.000  0.481-   9 2.78  11 2.78  13 2.78  15 2.78  10 2.85  14 2.85  12 2.85  16 2.85

[...]

   6  0.500  0.000  0.504-  10 2.92  12 2.92  14 2.92  16 2.92  13 2.96  11 2.96  15 2.96   9 2.96

   7  0.500  0.500  0.046-  17 2.46  11 2.72  13 2.72  15 2.72   9 2.72
   8  0.500  0.500  0.454-  17 2.46  11 2.72  13 2.72  15 2.72   9 2.72
   9  0.243  0.243  0.250-   7 2.72   8 2.72   1 2.78   2 2.78  11 2.84  13 2.84   3 2.96   4 2.96
                             5 2.96   6 2.96  13 3.01  11 3.01
  10  0.214  0.214  0.750-  17 2.37  14 2.51  12 2.51   2 2.85   1 2.85   6 2.92   3 2.92   4 2.92
                             5 2.92  12 3.35  14 3.35
  11  0.243  0.757  0.250-   7 2.72   8 2.72   1 2.78   2 2.78   9 2.84  15 2.84   3 2.96   4 2.96
                             5 2.96   6 2.96  15 3.01   9 3.01
  12  0.214  0.786  0.750-  17 2.37  16 2.51  10 2.51   2 2.85   1 2.85   6 2.92   3 2.92   4 2.92
                             5 2.92  16 3.35  10 3.35
  13  0.757  0.243  0.250-   7 2.72   8 2.72   1 2.78   2 2.78   9 2.84  15 2.84   3 2.96   4 2.96
                             5 2.96   6 2.96  15 3.01   9 3.01
  14  0.786  0.214  0.750-  17 2.37  16 2.51  10 2.51   2 2.85   1 2.85   6 2.92   3 2.92   4 2.92
                             5 2.92  16 3.35  10 3.35
  15  0.757  0.757  0.250-   7 2.72   8 2.72   1 2.78   2 2.78  11 2.84  13 2.84   3 2.96   4 2.96
                             5 2.96   6 2.96  13 3.01  11 3.01
  16  0.786  0.786  0.750-  17 2.37  14 2.51  12 2.51   2 2.85   1 2.85   6 2.92   3 2.92   4 2.92
                             5 2.92  14 3.35  12 3.35
  17  0.500  0.500  0.750-  10 2.37  12 2.37  14 2.37  16 2.37   7 2.46   8 2.46

  LATTYP: Found a simple tetragonal cell.
 ALAT       =     5.8584555020
 C/A-ratio  =     1.4168024267

  Lattice vectors:

 A1 = (   5.8584555020,   0.0000000000,   0.0000000000)
 A2 = (   0.0000000000,   5.8584555020,   0.0000000000)
 A3 = (   0.0000000000,   0.0000000000,   8.3002739718)

Analysis of symmetry for initial positions (statically):
 Subroutine PRICEL returns:
 Original cell was already a primitive cell.

 Routine SETGRP: Setting up the symmetry group for a
 simple tetragonal supercell.

 Subroutine GETGRP returns: Found 16 space group operations
 (whereof  8 operations were pure point group operations)
 out of a pool of 16 trial point group operations.

The static configuration has the point symmetry C_4v.
 The point group associated with its full space group is D_4h.

Analysis of symmetry for dynamics (positions and initial velocities):
 Subroutine PRICEL returns:
 Original cell was already a primitive cell.

 Routine SETGRP: Setting up the symmetry group for a
 simple tetragonal supercell.

 Subroutine GETGRP returns: Found 16 space group operations
 (whereof  8 operations were pure point group operations)
 out of a pool of 16 trial point group operations.

The dynamic configuration has the point symmetry C_4v.
 The point group associated with its full space group is D_4h.

 Subroutine INISYM returns: Found 16 space group operations
 (whereof  8 operations are pure point group operations),
 and found     1 'primitive' translations

                                     Primitive cell

  volume of cell :     284.8779

  direct lattice vectors                    reciprocal lattice vectors
     5.858455502  0.000000000  0.000000000     0.170693453  0.000000000  0.000000000
     0.000000000  5.858455502  0.000000000     0.000000000  0.170693453  0.000000000
     0.000000000  0.000000000  8.300273972     0.000000000  0.000000000  0.120477951

  length of vectors
     5.858455502  5.858455502  8.300273972     0.170693453  0.170693453  0.120477951

  position of ions in fractional coordinates (direct lattice)
     0.000000000  0.000000000  0.018673676
     0.000000000  0.000000000  0.481326324
     0.000000000  0.500000000  0.995507135
     0.000000000  0.500000000  0.504492865
     0.500000000  0.000000000  0.995507135
     0.500000000  0.000000000  0.504492865
     0.500000000  0.500000000  0.046382817
     0.500000000  0.500000000  0.453617183
     0.242685310  0.242685310  0.250000000
     0.213916829  0.213916829  0.750000000
     0.242685310  0.757314690  0.250000000
     0.213916829  0.786083171  0.750000000
     0.757314690  0.242685310  0.250000000
     0.786083171  0.213916829  0.750000000
     0.757314690  0.757314690  0.250000000
     0.786083171  0.786083171  0.750000000
     0.500000000  0.500000000  0.750000000

  ion indices of the primitive-cell ions
   primitive index   ion index
                 1           1
                 2           2
                 3           3
                 4           4
                 5           5
                 6           6
                 7           7
                 8           8
                 9           9
                10          10
                11          11
                12          12
                13          13
                14          14
                15          15
                16          16
                17          17

 KPOINTS: K-Path Generated by VASPKIT.

Interpolating k-points between supplied coordinates.

 Line segments in fractional coordinates (reciprocal lattice):
    0.000000  0.000000  0.000000  ...  0.000000  0.500000  0.000000
    0.000000  0.500000  0.000000  ...  0.500000  0.500000  0.000000
    0.500000  0.500000  0.000000  ...  0.000000  0.000000  0.000000
    0.000000  0.000000  0.000000  ...  0.000000  0.000000  0.500000
    0.000000  0.000000  0.500000  ...  0.000000  0.500000  0.500000
    0.000000  0.500000  0.500000  ...  0.500000  0.500000  0.500000
    0.500000  0.500000  0.500000  ...  0.000000  0.000000  0.500000
    0.000000  0.500000  0.000000  ...  0.000000  0.500000  0.500000
    0.500000  0.500000  0.000000  ...  0.500000  0.500000  0.500000

 Generated    20 points on each line segment, for a total of    180 k-points:

 Following reciprocal coordinates:
            Coordinates               Weight
  0.000000  0.000000  0.000000      0.005556
  0.000000  0.026316  0.000000      0.005556
  0.000000  0.052632  0.000000      0.005556
  0.000000  0.078947  0.000000      0.005556
  0.000000  0.105263  0.000000      0.005556
  0.000000  0.131579  0.000000      0.005556
  0.000000  0.157895  0.000000      0.005556
  0.000000  0.184211  0.000000      0.005556
  0.000000  0.210526  0.000000      0.005556
  0.000000  0.236842  0.000000      0.005556
  0.000000  0.263158  0.000000      0.005556
  0.000000  0.289474  0.000000      0.005556
  0.000000  0.315789  0.000000      0.005556
  0.000000  0.342105  0.000000      0.005556
  0.000000  0.368421  0.000000      0.005556
  0.000000  0.394737  0.000000      0.005556
  0.000000  0.421053  0.000000      0.005556
  0.000000  0.447368  0.000000      0.005556
  0.000000  0.473684  0.000000      0.005556
  0.000000  0.500000  0.000000      0.005556
  0.000000  0.500000  0.000000      0.005556
  0.026316  0.500000  0.000000      0.005556
  0.052632  0.500000  0.000000      0.005556
  0.078947  0.500000  0.000000      0.005556
  0.105263  0.500000  0.000000      0.005556
  0.131579  0.500000  0.000000      0.005556
  0.157895  0.500000  0.000000      0.005556
  0.184211  0.500000  0.000000      0.005556
  0.210526  0.500000  0.000000      0.005556
  0.236842  0.500000  0.000000      0.005556
  0.263158  0.500000  0.000000      0.005556
  0.289474  0.500000  0.000000      0.005556
  0.315789  0.500000  0.000000      0.005556
  0.342105  0.500000  0.000000      0.005556
  0.368421  0.500000  0.000000      0.005556
  0.394737  0.500000  0.000000      0.005556
  0.421053  0.500000  0.000000      0.005556
  0.447368  0.500000  0.000000      0.005556
  0.473684  0.500000  0.000000      0.005556
  0.500000  0.500000  0.000000      0.005556
  0.500000  0.500000  0.000000      0.005556
  0.473684  0.473684  0.000000      0.005556
  0.447368  0.447368  0.000000      0.005556
  0.421053  0.421053  0.000000      0.005556
  0.394737  0.394737  0.000000      0.005556
  0.368421  0.368421  0.000000      0.005556
  0.342105  0.342105  0.000000      0.005556
  0.315789  0.315789  0.000000      0.005556
  0.289474  0.289474  0.000000      0.005556
  0.263158  0.263158  0.000000      0.005556
  0.236842  0.236842  0.000000      0.005556
  0.210526  0.210526  0.000000      0.005556
  0.184211  0.184211  0.000000      0.005556
  0.157895  0.157895  0.000000      0.005556
  0.131579  0.131579  0.000000      0.005556
  0.105263  0.105263  0.000000      0.005556
  0.078947  0.078947  0.000000      0.005556
  0.052632  0.052632  0.000000      0.005556
  0.026316  0.026316  0.000000      0.005556
  0.000000  0.000000  0.000000      0.005556
[...]
[...]
 k-point   177 :   0.5000 0.5000 0.4211  plane waves:    7688
 k-point   178 :   0.5000 0.5000 0.4474  plane waves:    7688
 k-point   179 :   0.5000 0.5000 0.4737  plane waves:    7680
 k-point   180 :   0.5000 0.5000 0.5000  plane waves:    7704

 maximum and minimum number of plane-waves per node :      7744     7636

 maximum number of plane-waves:      7744
 maximum index in each direction:
   IXMAX=   10   IYMAX=   10   IZMAX=   15
   IXMIN=  -11   IYMIN=  -11   IZMIN=  -15

 serial   3D FFT for wavefunctions
 parallel 3D FFT for charge:
    minimum data exchange during FFTs selected (reduces bandwidth)

 initial charge density was supplied:
 number of electron     132.9999798 magnetization
 keeping initial charge density in first step

 Maximum index for augmentation-charges          772 (set IRDMAX)

 First call to EWALD:  gamma=   0.269
 Maximum number of real-space cells   3x   3x   2
 Maximum number of reciprocal cells   3x   3x   3

--------------------------------------- Ionic step        1  -------------------------------------------

--------------------------------------- Iteration      1(   1)  ---------------------------------------

 eigenvalue-minimisations  : 57024
 total energy-change (2. order) :-0.9828136E+02  (-0.2768789E-07)
 number of electron     132.9999798 magnetization
 augmentation part      132.9999798 magnetization

 Free energy of the ion-electron system (eV)
  alpha Z        PSCENC =       353.75656847
  Ewald energy   TEWEN  =     -9823.54474122
  -Hartree energ DENC   =     -4574.45022192
  -exchange      EXHF   =         0.00000000
  -V(xc)+E(xc)   XCENC  =       321.98797078
  PAW double counting   =     14842.87852822   -14742.74479515
  entropy T*S    EENTRO =         0.00233066
  eigenvalues    EBANDS =     -1757.98176229
  atomic energy  EATOM  =     15281.81476201
  Solvation  Ediel_sol  =         0.00000000
  free energy    TOTEN  =       -98.28136044 eV

  energy without entropy =      -98.28369110  energy(sigma->0) =      -98.28213732

--------------------------------------- Iteration      1(   2)  ---------------------------------------

 eigenvalue-minimisations  : 36672
 total energy-change (2. order) :-0.5831680E-08  (-0.6245666E-08)
 number of electron     132.9999798 magnetization
 augmentation part      132.9999798 magnetization

 Free energy of the ion-electron system (eV)
  alpha Z        PSCENC =       353.75656847
  Ewald energy   TEWEN  =     -9823.54474122
  -Hartree energ DENC   =     -4574.45022192
  -exchange      EXHF   =         0.00000000
  -V(xc)+E(xc)   XCENC  =       321.98797078
  PAW double counting   =     14842.87852822   -14742.74479515
  entropy T*S    EENTRO =         0.00233066
  eigenvalues    EBANDS =     -1757.98176229
  atomic energy  EATOM  =     15281.81476201
  Solvation  Ediel_sol  =         0.00000000
  free energy    TOTEN  =       -98.28136044 eV

  energy without entropy =      -98.28369110  energy(sigma->0) =      -98.28213733

 average (electrostatic) potential at core
  the test charge radii are     1.0397  1.0406  1.0314
  (the norm of the test charge is              1.0000)
       1 -72.6562       2 -72.6562       3 -73.0080       4 -73.0080       5 -73.0080
       6 -73.0080       7 -72.6848       8 -72.6848       9 -71.7255      10 -72.1302
      11 -71.7255      12 -72.1302      13 -71.7255      14 -72.1302      15 -71.7255
      16 -72.1302      17 -62.7396

 E-fermi :   7.9831     XC(G=0): -10.9195     alpha+bet :-15.5516

 val. band max:        7.9824789592   @ k =   0.3421   0.5000   0.5000
 cond. band min:       7.9833333788   @ k =   0.3421   0.5000   0.0000
 fundamental gap:      0.0008544196
 Fermi energy:         7.9831102717

 k-point     1 :       0.0000    0.0000    0.0000
  band No.  band energies     occupation
      1     -48.9413      2.00000
      2     -48.9409      2.00000
      3     -48.9370      2.00000
      4     -48.9366      2.00000
      5     -48.6467      2.00000
      6     -48.6434      2.00000
      7     -48.6016      2.00000
      8     -48.6010      2.00000
      9     -25.3381      2.00000
     10     -25.3323      2.00000
     11     -25.3275      2.00000
     12     -25.3232      2.00000
     13     -25.2267      2.00000
     14     -25.2267      2.00000
     15     -25.2244      2.00000
     16     -25.2244      2.00000
     17     -25.1708      2.00000
     18     -25.1708      2.00000
     19     -25.1695      2.00000
     20     -25.1695      2.00000
     21     -25.0422      2.00000
     22     -24.9930      2.00000
     23     -24.9894      2.00000
     24     -24.9743      2.00000
     25     -24.8314      2.00000
     26     -24.8314      2.00000
     27     -24.8275      2.00000
     28     -24.8275      2.00000
     29     -24.7556      2.00000
     30     -24.7556      2.00000
     31     -24.7546      2.00000
     32     -24.7546      2.00000
     33      -7.4237      2.00000
     34      -7.3234      2.00000
     35      -7.2951      2.00000
     36      -7.2440      2.00000
     37      -7.2440      2.00000
     38      -1.8271      2.00000
     39       0.1089      2.00000
     40       1.4846      2.00000
     41       2.3785      2.00000
     42       2.3785      2.00000
     43       2.6587      2.00000
     44       3.1984      2.00000
     45       3.1984      2.00000
     46       3.5327      2.00000
     47       4.4677      2.00000
     48       4.8673      2.00000
     49       4.9799      2.00000
     50       5.2656      2.00000
     51       5.2656      2.00000
     52       5.7328      2.00000
     53       6.0722      2.00000
     54       6.1898      2.00000
     55       6.3785      2.00000
     56       6.3785      2.00000
     57       6.6693      2.00000
     58       6.6806      2.00000
     59       6.6806      2.00000
     60       6.7343      2.00000
[...]
    114      14.9571      0.00000
    115      15.5667      0.00000
    116      16.4225      0.00000
    117      16.4311      0.00000
    118      16.4414      0.00000
    119      16.9216      0.00000
    120      16.9216      0.00000
    121      17.4818      0.00000
    122      17.8282      0.00000
    123      17.9857      0.00000
    124      17.9857      0.00000
    125      18.4766      0.00000
    126      18.5707      0.00000
    127      18.5707      0.00000
    128      18.8584      0.00000

[...]

 k-point   180 :       0.5000    0.5000    0.5000
  band No.  band energies     occupation
      1     -48.9372      2.00000
      2     -48.9372      2.00000
      3     -48.9371      2.00000
      4     -48.9371      2.00000
      5     -48.6485      2.00000
      6     -48.6452      2.00000
      7     -48.6036      2.00000
      8     -48.6031      2.00000
      9     -25.3312      2.00000
     10     -25.3312      2.00000
     11     -25.3293      2.00000
     12     -25.3293      2.00000
     13     -25.1680      2.00000
     14     -25.1671      2.00000
     15     -25.1520      2.00000
     16     -25.1518      2.00000
     17     -25.1101      2.00000
     18     -25.1096      2.00000
     19     -25.0989      2.00000
     20     -25.0987      2.00000
     21     -25.0319      2.00000
     22     -24.9920      2.00000
     23     -24.9868      2.00000
     24     -24.9766      2.00000
     25     -24.8960      2.00000
     26     -24.8960      2.00000
     27     -24.8909      2.00000
     28     -24.8909      2.00000
     29     -24.8322      2.00000
     30     -24.8322      2.00000
     31     -24.8312      2.00000
     32     -24.8312      2.00000
     33      -7.4253      2.00000
     34      -7.3212      2.00000
     35      -7.2932      2.00000
     36      -7.2444      2.00000
     37      -7.2444      2.00000
     38      -0.7300      2.00000
     39       0.5261      2.00000
     40       1.1538      2.00000
     41       1.1538      2.00000
     42       1.5708      2.00000
     43       1.8099      2.00000
     44       1.8099      2.00000
     45       1.9364      2.00000
     46       5.3366      2.00000
     47       5.5791      2.00000
     48       5.6505      2.00000
     49       5.6574      2.00000
     50       5.6574      2.00000
     51       5.6893      2.00000
     52       6.1457      2.00000
     53       6.1457      2.00000
     54       6.4373      2.00000
     55       6.4373      2.00000
     56       6.9641      2.00000
     57       7.0981      2.00000
     58       7.1042      2.00000
     59       7.2406      2.00000
     60       7.2517      2.00000
[...]
    114      15.9197      0.00000
    115      16.1061      0.00000
    116      16.1730      0.00000
    117      16.1730      0.00000
    118      16.7670      0.00000
    119      17.0937      0.00000
    120      17.1707      0.00000
    121      17.1707      0.00000
    122      17.1863      0.00000
    123      17.2522      0.00000
    124      17.2522      0.00000
    125      17.3283      0.00000
    126      17.3290      0.00000
    127      17.3832      0.00000
    128      17.3832      0.00000

 soft charge-density along one line, spin component           1
         0         1         2         3         4         5         6         7         8         9
 total charge-density along one line

------------------------ aborting loop because EDIFF is reached ----------------------------------------

 total charge

# of ion       s       p       d       tot
    1        2.193   6.116   1.949  10.259
    2        2.193   6.116   1.949  10.259
    3        2.187   6.084   1.878  10.149
    4        2.187   6.084   1.878  10.149
    5        2.187   6.084   1.878  10.149
    6        2.187   6.084   1.878  10.149
    7        2.201   6.111   1.956  10.269
    8        2.201   6.111   1.956  10.269
    9        0.409   0.410   0.000   0.819
   10        0.410   0.429   0.000   0.839
   11        0.409   0.410   0.000   0.819
   12        0.410   0.429   0.000   0.839
   13        0.409   0.410   0.000   0.819
   14        0.410   0.429   0.000   0.839
   15        0.409   0.410   0.000   0.819
   16        0.410   0.429   0.000   0.839
   17        1.004   1.122   9.976  12.102
tot         21.819  53.269  25.300 100.389

  FORCE on cell =-STRESS in cart. coord.  units (eV):
  Direction    XX          YY          ZZ          XY          YZ          ZX
  Alpha Z   353.75657   353.75657   353.75657
  Ewald   -3102.58969 -3102.58969 -3618.38885     0.00000    -0.00000    -0.00000
  Hartree  1696.65442  1696.65442  1169.44302    -0.00000    -0.00000    -0.00000
  E(xc)    -654.59565  -654.59565  -655.08828     0.00000    -0.00000    -0.00000
  Local    -400.55427  -400.55427   647.87719    -0.00000     0.00000     0.00000
  n-local  -107.54943   -87.12975   -70.88426    -0.90728     0.00000     0.00000
  augment   615.39232   615.39232   604.64692     0.00000     0.00000     0.00000
  Kinetic  1599.65740  1584.33290  1560.06432     0.32436    -0.00000    -0.00000
  Fock        0.00000     0.00000     0.00000     0.00000     0.00000     0.00000
  Total       2.71925     2.71925    -8.57337     0.00000     0.00000     0.00000
  in kB      15.29331    15.29331   -48.21734     0.00000     0.00000     0.00000

 VOLUME and BASIS-vectors are now :
  energy-cutoff  :      520.00
  volume of cell :      284.88
      direct lattice vectors                 reciprocal lattice vectors
     5.858455502  0.000000000  0.000000000     0.170693453  0.000000000  0.000000000
     0.000000000  5.858455502  0.000000000     0.000000000  0.170693453  0.000000000
     0.000000000  0.000000000  8.300273972     0.000000000  0.000000000  0.120477951

  length of vectors
     5.858455502  5.858455502  8.300273972     0.170693453  0.170693453  0.120477951

 FORCES acting on ions
    electron-ion (+dipol)            ewald-force                    non-local-force                 convergence-correction
   -.306E-13 0.343E-12 -.467E+02   0.293E-13 -.697E-14 0.445E+02   -.662E-23 -.662E-23 0.781E+00   -.128E-11 -.158E-11 0.123E+01
   -.147E-13 -.319E-12 0.467E+02   0.115E-13 -.533E-14 -.445E+02   0.662E-23 0.993E-23 -.781E+00   0.864E-12 -.689E-12 -.123E+01
   -.363E-13 0.968E-12 -.466E+02   0.672E-14 0.902E-14 0.454E+02   0.000E+00 0.000E+00 -.105E+01   -.123E-11 0.656E-11 0.206E+01
   -.359E-13 0.287E-12 0.466E+02   0.628E-14 0.127E-13 -.454E+02   0.000E+00 0.000E+00 0.105E+01   0.273E-12 0.504E-11 -.206E+01
   0.670E-12 0.382E-12 -.466E+02   -.160E-13 -.805E-14 0.454E+02   -.331E-23 0.000E+00 -.105E+01   0.645E-11 -.545E-11 0.206E+01
   0.686E-12 -.465E-12 0.466E+02   -.230E-14 0.172E-15 -.454E+02   0.331E-23 0.000E+00 0.105E+01   0.135E-11 0.287E-11 -.206E+01
   0.684E-12 0.227E-11 -.220E+03   -.182E-13 0.668E-14 0.220E+03   -.496E-23 0.000E+00 -.625E+00   0.139E-11 0.241E-11 0.114E+01
   0.770E-12 0.300E-11 0.220E+03   0.525E-15 -.537E-14 -.220E+03   0.496E-23 0.000E+00 0.625E+00   0.145E-11 -.809E-12 -.114E+01
   0.929E+01 0.929E+01 -.287E-07   -.937E+01 -.937E+01 -.255E-14   -.411E-01 -.411E-01 0.496E-23   0.952E-01 0.952E-01 -.317E-12
   0.306E+02 0.306E+02 0.162E-06   -.327E+02 -.327E+02 -.790E-14   0.197E+01 0.197E+01 -.248E-23   0.590E-01 0.590E-01 0.179E-12
   0.929E+01 -.929E+01 0.777E-13   -.937E+01 0.937E+01 0.263E-13   -.411E-01 0.411E-01 0.248E-23   0.952E-01 -.952E-01 -.644E-12
   0.306E+02 -.306E+02 0.389E-13   -.327E+02 0.327E+02 0.103E-13   0.197E+01 -.197E+01 -.331E-23   0.590E-01 -.590E-01 0.474E-12
   -.929E+01 0.929E+01 -.148E-11   0.937E+01 -.937E+01 -.269E-14   0.411E-01 -.411E-01 0.000E+00   -.952E-01 0.952E-01 -.590E-12
   -.306E+02 0.306E+02 0.928E-14   0.327E+02 -.327E+02 0.309E-14   -.197E+01 0.197E+01 0.000E+00   -.590E-01 0.590E-01 0.346E-12
   -.929E+01 -.929E+01 0.287E-07   0.937E+01 0.937E+01 -.350E-14   0.411E-01 0.411E-01 0.000E+00   -.952E-01 -.952E-01 -.900E-12
   -.306E+02 -.306E+02 -.162E-06   0.327E+02 0.327E+02 0.212E-13   -.197E+01 -.197E+01 0.000E+00   -.590E-01 -.590E-01 0.633E-12
   0.114E-11 0.374E-11 0.267E-11   0.388E-13 0.970E-14 0.775E-14   0.000E+00 0.165E-23 -.331E-23   0.958E-12 0.109E-10 0.941E-12
   0.430E-11 0.111E-10 0.158E-10   -.251E-13 0.259E-14 -.487E-14   0.222E-15 0.165E-23 0.222E-15   0.101E-10 0.187E-10 -.297E-11

 POSITION                                       TOTAL-FORCE (eV/Angst)
      0.00000      0.00000      0.15500        -0.000000     -0.000000     -0.109728
      0.00000      0.00000      3.99514        -0.000000     -0.000000      0.109728
      0.00000      2.92923      8.26298        -0.000000     -0.000000     -0.121119
      0.00000      2.92923      4.18743        -0.000000     -0.000000      0.121119
      2.92923      0.00000      8.26298        -0.000000     -0.000000     -0.121119
      2.92923      0.00000      4.18743        -0.000000     -0.000000      0.121119
      2.92923      2.92923      0.38499        -0.000000     -0.000000     -0.053420
      2.92923      2.92923      3.76515        -0.000000     -0.000000      0.053420
      1.42176      1.42176      2.07507        -0.030246     -0.030246      0.000000
      1.25322      1.25322      6.22521        -0.033504     -0.033504      0.000000
      1.42176      4.43669      2.07507        -0.030246      0.030246      0.000000
      1.25322      4.60523      6.22521        -0.033504      0.033504     -0.000000
      4.43669      1.42176      2.07507         0.030246     -0.030246      0.000000
      4.60523      1.25322      6.22521         0.033504     -0.033504     -0.000000
      4.43669      4.43669      2.07507         0.030246      0.030246      0.000000
      4.60523      4.60523      6.22521         0.033504      0.033504      0.000000
      2.92923      2.92923      6.22521        -0.000000     -0.000000      0.000000
    total drift:                                0.000000      0.000000      0.000000

  FREE ENERGIE OF THE ION-ELECTRON SYSTEM (eV)
  free  energy   TOTEN  =       -98.28136044 eV

  energy  without entropy=      -98.28369110  energy(sigma->0) =      -98.28213733

 writing wavefunctions

 total charge

# of ion       s       p       d       tot
    1        2.193   6.116   1.949  10.259
    2        2.193   6.116   1.949  10.259
    3        2.187   6.084   1.878  10.149
    4        2.187   6.084   1.878  10.149
    5        2.187   6.084   1.878  10.149
    6        2.187   6.084   1.878  10.149
    7        2.201   6.111   1.956  10.269
    8        2.201   6.111   1.956  10.269
    9        0.409   0.410   0.000   0.819
   10        0.410   0.429   0.000   0.839
   11        0.409   0.410   0.000   0.819
   12        0.410   0.429   0.000   0.839
   13        0.409   0.410   0.000   0.819
   14        0.410   0.429   0.000   0.839
   15        0.409   0.410   0.000   0.819
   16        0.410   0.429   0.000   0.839
   17        1.004   1.122   9.976  12.102
tot         21.819  53.269  25.300 100.389