 vasp.6.5.0 16Dec24 (build Apr 17 2025 17:55:45) complex

 executed on             LinuxIFC date 2025.06.10  15:40:50

 INCAR:
   ISTART = 0
   ICHARG = 2
   PREC = N
   LREAL = .FALSE.
   ENCUT = 520
   ALGO = N
   NELM = 500
   EDIFF = 1E-05
   IBRION = -1
   ISIF = 3
   NSW = 0
   EDIFFG = -0.01
   ISMEAR = 1
   SIGMA = 0.1
   LVHAR = .TRUE.
   LVTOT = .TRUE.

 POTCAR:    PAW_PBE Ti_sv 26Sep2005
 POTCAR:    PAW_PBE Al 04Jan2001
 POTCAR:    PAW_PBE Ga_d 06Jul2010
|           W    W    AA    RRRRR   N    N  II  N    N   GGGG   !!!           |
|           W    W   A  A   R    R  NN   N  II  NN   N  G    G  !!!           |
|           W    W  A    A  R    R  N N  N  II  N N  N  G       !!!           |
|           W WW W  AAAAAA  RRRRR   N  N N  II  N  N N  G  GGG   !            |
|           WW  WW  A    A  R   R   N   NN  II  N   NN  G    G                |
|           W    W  A    A  R    R  N    N  II  N    N   GGGG   !!!           |
|     For optimal performance we recommend to set                             |
|       NCORE = 2 up to number-of-cores-per-socket                            |
|     This setting can greatly improve the performance of VASP for DFT.       |
|     The default, NCORE=1 might be grossly inefficient on modern             |
|     multi-core architectures or massively parallel machines. Do your        |
|     Unfortunately you need to use the default for GW and RPA                |
|     calculations (for HF NCORE is supported but not extensively tested      |
|     yet).                                                                   |

   TITEL  = PAW_PBE Ti_sv 26Sep2005
   POMASS =   47.880; ZVAL   =   12.000    mass and valenz
   ENMAX  =  274.610; ENMIN  =  205.957 eV

   TITEL  = PAW_PBE Al 04Jan2001
   POMASS =   26.981; ZVAL   =    3.000    mass and valenz
   ENMAX  =  240.300; ENMIN  =  180.225 eV

   TITEL  = PAW_PBE Ga_d 06Jul2010
   POMASS =   69.723; ZVAL   =   13.000    mass and valenz
   ENMAX  =  282.691; ENMIN  =  212.018 eV

  PAW_PBE Ti_sv 26Sep2005               :
  PAW_PBE Al 04Jan2001                  :
  PAW_PBE Ga_d 06Jul2010                :

 POSCAR: Generated by VASPKIT code
  positions in direct lattice

 exchange-correlation table for PE
   RHO(1)=    0.500       N(1)  =     2000
   RHO(2)=  100.500       N(2)  =     4000

 ion  position               nearest neighbor table
   1  0.991  0.000  0.331-  17 2.69  21 2.69  26 2.79  30 2.79
   2  0.491  0.000  0.503-  18 2.69  22 2.69  28 2.69  32 2.69  29 2.79  25 2.79  19 2.79  23 2.79

   3  0.759  0.000  0.411-  26 2.69  30 2.69  19 2.69  23 2.69  21 2.79  17 2.79  28 2.79  32 2.79

[...]

   9  0.252  0.000  0.413-  25 2.85  29 2.85  17 2.96  21 2.96  28 2.96  32 2.96
  10  0.752  0.000  0.585-  19 2.84  23 2.84  22 2.96  18 2.96  27 2.96  31 2.96
  11  0.998  0.000  0.501-  27 2.84  31 2.84  17 2.85  21 2.85  29 2.96  25 2.96  19 2.96  23 2.96

  12  0.498  0.000  0.329-  28 2.84  32 2.84  30 2.96  26 2.96
  13  0.227  0.500  0.422-  34 2.20  29 2.67  25 2.67  21 2.77  17 2.77
  14  0.727  0.500  0.594-  33 2.20  22 2.77  18 2.77
  15  0.023  0.500  0.492-  33 2.20  21 2.67  17 2.67  29 2.77  25 2.77
  16  0.523  0.500  0.664-  18 2.67  22 2.67
  17  0.996  0.243  0.413-  15 2.67   1 2.69  13 2.77   3 2.79  21 2.84  11 2.85   7 2.95   9 2.96
                            21 3.01  26 3.19
  18  0.496  0.243  0.585-  16 2.67   2 2.69  14 2.77   4 2.79   6 2.84  22 2.84   8 2.95  10 2.96
                            22 3.01  25 3.19
  19  0.732  0.214  0.494-  23 2.51  33 2.52   3 2.69   2 2.79   7 2.80  28 2.81  10 2.84   6 2.89
                            11 2.96  23 3.35
  20  0.232  0.214  0.666-  24 2.51   4 2.69   8 2.80  27 2.81   5 2.89  24 3.35
  21  0.996  0.757  0.413-  15 2.67   1 2.69  13 2.77   3 2.79  17 2.84  11 2.85   7 2.95   9 2.96
                            17 3.01  30 3.19
  22  0.496  0.757  0.585-  16 2.67   2 2.69  14 2.77   4 2.79   6 2.84  18 2.84   8 2.95  10 2.96
                            18 3.01  29 3.19
  23  0.732  0.786  0.494-  19 2.51  33 2.52   3 2.69   2 2.79   7 2.80  32 2.81  10 2.84   6 2.89
                            11 2.96  19 3.35
  24  0.232  0.786  0.666-  20 2.51   4 2.69   8 2.80  31 2.81   5 2.89  20 3.35
  25  0.254  0.243  0.501-  13 2.67   4 2.69  15 2.77   2 2.79   8 2.84  29 2.84   9 2.85   6 2.95
                            11 2.96  29 3.01  18 3.19
  26  0.754  0.243  0.329-   3 2.69   1 2.79   7 2.84  30 2.84  12 2.96  30 3.01  17 3.19
  27  0.018  0.214  0.592-  31 2.51  33 2.52   4 2.79   5 2.80  20 2.81  11 2.84   8 2.89  10 2.96
                            31 3.35
  28  0.518  0.214  0.420-  32 2.51  34 2.52   2 2.69   3 2.79   6 2.80  19 2.81  12 2.84   7 2.89
                             9 2.96  32 3.35
  29  0.254  0.757  0.501-  13 2.67   4 2.69  15 2.77   2 2.79   8 2.84  25 2.84   9 2.85   6 2.95
                            11 2.96  25 3.01  22 3.19
  30  0.754  0.757  0.329-   3 2.69   1 2.79   7 2.84  26 2.84  12 2.96  26 3.01  21 3.19
  31  0.018  0.786  0.592-  27 2.51  33 2.52   4 2.79   5 2.80  24 2.81  11 2.84   8 2.89  10 2.96
                            27 3.35
  32  0.518  0.786  0.420-  28 2.51  34 2.52   2 2.69   3 2.79   6 2.80  23 2.81  12 2.84   7 2.89
                             9 2.96  28 3.35
  33  0.875  0.500  0.543-  14 2.20  15 2.20  23 2.52  27 2.52  19 2.52  31 2.52
  34  0.375  0.500  0.371-  13 2.20  28 2.52  32 2.52

  LATTYP: Found a simple monoclinic cell.
 ALAT       =    10.1595299535
 B/A-ratio  =     0.5766463142
 C/A-ratio  =     2.7592498170
 COS(beta)  =    -0.1213946104

  Lattice vectors:

 A1 = (  10.1595299535,   0.0000000000,   0.0000000000)
 A2 = (   0.0000000000,   5.8584555020,   0.0000000000)
 A3 = (  -3.4030164088,   0.0000000000,  27.8253606017)

Analysis of symmetry for initial positions (statically):
 Subroutine PRICEL returns:
 Original cell was already a primitive cell.

 Routine SETGRP: Setting up the symmetry group for a
 simple monoclinic supercell.

 Subroutine GETGRP returns: Found  2 space group operations
 (whereof  2 operations were pure point group operations)
 out of a pool of  4 trial point group operations.

The static configuration has the point symmetry C_1h.

Analysis of symmetry for dynamics (positions and initial velocities):
 Subroutine PRICEL returns:
 Original cell was already a primitive cell.

 Routine SETGRP: Setting up the symmetry group for a
 simple monoclinic supercell.

 Subroutine GETGRP returns: Found  2 space group operations
 (whereof  2 operations were pure point group operations)
 out of a pool of  4 trial point group operations.

The dynamic configuration has the point symmetry C_1h.

 Subroutine INISYM returns: Found  2 space group operations
 (whereof  2 operations are pure point group operations),
 and found     1 'primitive' translations

                                     Primitive cell

  volume of cell :    1656.1419

  direct lattice vectors                    reciprocal lattice vectors
    10.159529953  0.000000000  0.000000000     0.098429751 -0.000000000  0.012037869
     0.000000000  5.858455502  0.000000000     0.000000000  0.170693453 -0.000000000
    -3.403016409  0.000000000 27.825360602     0.000000000  0.000000000  0.035938438

  length of vectors
    10.159529953  5.858455502 28.032681165     0.099163129  0.170693453  0.035938438

  position of ions in fractional coordinates (direct lattice)
     0.990663162  0.000000000  0.331199163
     0.490663162  0.000000000  0.503212114
     0.759336838  0.000000000  0.410781410
     0.259336838  0.000000000  0.582794362
     0.002246433  0.500000000  0.671240120
     0.502246433  0.500000000  0.499227169
     0.747753567  0.500000000  0.414766355
     0.247753567  0.500000000  0.586779307
     0.252246433  0.000000000  0.413220693
     0.752246433  0.000000000  0.585233645
     0.997753567  0.000000000  0.500772831
     0.497753567  0.000000000  0.328759880
     0.226808592  0.500000000  0.421971970
     0.726808592  0.500000000  0.593984921
     0.023191408  0.500000000  0.492021555
     0.523191408  0.500000000  0.664034506
     0.996342655  0.242685310  0.412735303
     0.496342655  0.242685310  0.584748254
     0.731958414  0.213916829  0.493793227
     0.231958414  0.213916829  0.665806178
     0.996342655  0.757314690  0.412735303
     0.496342655  0.757314690  0.584748254
     0.731958414  0.786083171  0.493793227
     0.231958414  0.786083171  0.665806178
     0.253657345  0.242685310  0.501258221
     0.753657345  0.242685310  0.329245270
     0.018041586  0.213916829  0.592213248
     0.518041586  0.213916829  0.420200297
     0.253657345  0.757314690  0.501258221
     0.753657345  0.757314690  0.329245270
     0.018041586  0.786083171  0.592213248
     0.518041586  0.786083171  0.420200297
     0.875000000  0.500000000  0.543003238
     0.375000000  0.500000000  0.370990287

  ion indices of the primitive-cell ions
   primitive index   ion index
                 1           1
                 2           2
                 3           3
                 4           4
                 5           5
                 6           6
                 7           7
                 8           8
                 9           9
                10          10
                11          11
                12          12
                13          13
                14          14
                15          15
                16          16
                17          17
                18          18
                19          19
                20          20
                21          21
                22          22
                23          23
                24          24
                25          25
                26          26
                27          27
                28          28
                29          29
                30          30
                31          31
                32          32
                33          33
                34          34

 KPOINTS: K-Spacing Value to Generate K-Mesh: 0.03

Automatic generation of k-mesh.
 Grid dimensions read from file:
 generate k-points for:    3    6    1

 Generating k-lattice:

  Cartesian coordinates                     Fractional coordinates (reciprocal lattice)
     0.032809917 -0.000000000  0.004012623     0.333333333  0.000000000  0.000000000
     0.000000000  0.028448909 -0.000000000     0.000000000  0.166666667  0.000000000
     0.000000000  0.000000000  0.035938438     0.000000000  0.000000000  1.000000000

  Length of vectors
     0.033054376  0.028448909  0.035938438

  Shift w.r.t. Gamma in fractional coordinates (k-lattice)
     0.000000000  0.000000000  0.000000000

 Subroutine IBZKPT returns following result:

 Found      8 irreducible k-points:

 Following reciprocal coordinates:
            Coordinates               Weight
  0.000000  0.000000  0.000000      1.000000
  0.333333  0.000000  0.000000      2.000000
  0.000000  0.166667  0.000000      2.000000
  0.333333  0.166667  0.000000      4.000000
  0.000000  0.333333  0.000000      2.000000
  0.333333  0.333333  0.000000      4.000000
  0.000000  0.500000  0.000000      1.000000
[...]
 augmentation part       76.1002738 magnetization

 Free energy of the ion-electron system (eV)
  alpha Z        PSCENC =       243.40284528
  Ewald energy   TEWEN  =     84592.39660786
  -Hartree energ DENC   =   -110934.76477477
  -exchange      EXHF   =         0.00000000
  -V(xc)+E(xc)   XCENC  =       635.25450397
  PAW double counting   =     28725.24789863   -28525.96486157
  entropy T*S    EENTRO =        -0.01306783
  eigenvalues    EBANDS =     -5476.23206762
  atomic energy  EATOM  =     30563.62952402
  Solvation  Ediel_sol  =         0.00000000
  free energy    TOTEN  =      -177.04339203 eV

  energy without entropy =     -177.03032420  energy(sigma->0) =     -177.03903609

 average (electrostatic) potential at core
  the test charge radii are     1.0397  1.0406  1.0314
  (the norm of the test charge is              1.0000)
       1 -80.8612       2 -80.1133       3 -80.0327       4 -80.0642       5 -80.9864
       6 -80.3919       7 -80.4320       8 -80.4502       9 -80.6614      10 -80.6839
      11 -80.5001      12 -80.9602      13 -80.1438      14 -80.1960      15 -80.0885
      16 -81.0148      17 -79.1980      18 -79.1779      19 -79.4866      20 -79.5308
      21 -79.1980      22 -79.1779      23 -79.4866      24 -79.5308      25 -79.2248
      26 -79.5836      27 -79.5025      28 -79.3405      29 -79.2248      30 -79.5836
      31 -79.5025      32 -79.3405      33 -69.9146      34 -69.6539

 E-fermi :   0.5718     XC(G=0):  -4.7017     alpha+bet : -5.3502

 val. band max:        0.5713766983   @ k =   0.0000   0.1667   0.0000
 cond. band min:       0.5745402944   @ k =   0.0000   0.3333   0.0000
 fundamental gap:      0.0031635961
 Fermi energy:         0.5718118419

 k-point     1 :       0.0000    0.0000    0.0000
  band No.  band energies     occupation
      1     -56.9769      2.00000
      2     -56.9353      2.00000
      3     -56.9170      2.00000
      4     -56.8257      2.00000
      5     -56.6111      2.00000
      6     -56.5813      2.00000
      7     -56.4308      2.00000
      8     -56.3804      2.00000
      9     -56.3688      2.00000
     10     -56.3298      2.00000
     11     -56.1688      2.00000
     12     -56.1368      2.00000
     13     -56.0804      2.00000
     14     -56.0719      2.00000
     15     -56.0251      2.00000
     16     -55.9899      2.00000
     17     -33.3546      2.00000
     18     -33.3352      2.00000
     19     -33.2651      2.00000
     20     -33.2444      2.00000
     21     -33.2221      2.00000
     22     -33.1660      2.00000
     23     -33.1593      2.00000
     24     -33.1470      2.00000
     25     -33.1236      2.00000
     26     -33.0943      2.00000
     27     -33.0905      2.00000
     28     -32.9871      2.00000
     29     -32.9790      2.00000
     30     -32.9481      2.00000
     31     -32.8659      2.00000
     32     -32.8051      2.00000
     33     -32.8017      2.00000
     34     -32.7837      2.00000
     35     -32.7616      2.00000
     36     -32.7574      2.00000
     37     -32.7283      2.00000
     38     -32.7026      2.00000
     39     -32.7018      2.00000
     40     -32.6800      2.00000
     41     -32.6684      2.00000
     42     -32.6536      2.00000
     43     -32.6398      2.00000
     44     -32.5782      2.00000
     45     -32.5741      2.00000
     46     -32.5693      2.00000
     47     -32.5212      2.00000
     48     -32.5132      2.00000
     49     -32.5021      2.00000
     50     -32.4472      2.00000
     51     -32.4191      2.00000
     52     -32.4128      2.00000
     53     -32.4041      2.00000
     54     -32.3822      2.00000
     55     -32.3808      2.00000
     56     -32.3534      2.00000
     57     -32.3244      2.00000
     58     -32.3116      2.00000
     59     -32.2907      2.00000
     60     -32.2656      2.00000
[...]
    178       2.4082     -0.00000
    179       2.4988     -0.00000
    180       2.5520     -0.00000
    181       2.6269      0.00000
    182       2.6534      0.00000
    183       2.7839      0.00000
    184       2.7861      0.00000
    185       2.8161      0.00000
    186       2.9353      0.00000
    187       2.9389      0.00000
    188       3.0286      0.00000
    189       3.1384      0.00000
    190       3.2662      0.00000
    191       3.2969      0.00000
    192       3.3836      0.00000

[...]

 k-point     8 :       0.3333    0.5000    0.0000
  band No.  band energies     occupation
      1     -56.9769      2.00000
      2     -56.9353      2.00000
      3     -56.9170      2.00000
      4     -56.8257      2.00000
      5     -56.6105      2.00000
      6     -56.5807      2.00000
      7     -56.4300      2.00000
      8     -56.3795      2.00000
      9     -56.3680      2.00000
     10     -56.3285      2.00000
     11     -56.1695      2.00000
     12     -56.1375      2.00000
     13     -56.0813      2.00000
     14     -56.0732      2.00000
     15     -56.0261      2.00000
     16     -55.9908      2.00000
     17     -33.3546      2.00000
     18     -33.3352      2.00000
     19     -33.2651      2.00000
     20     -33.2444      2.00000
     21     -33.2221      2.00000
     22     -33.1660      2.00000
     23     -33.1594      2.00000
     24     -33.1470      2.00000
     25     -33.1236      2.00000
     26     -33.0943      2.00000
     27     -33.0905      2.00000
     28     -32.9871      2.00000
     29     -32.9791      2.00000
     30     -32.9484      2.00000
     31     -32.8655      2.00000
     32     -32.8041      2.00000
     33     -32.7606      2.00000
     34     -32.7578      2.00000
     35     -32.7498      2.00000
     36     -32.7339      2.00000
     37     -32.7276      2.00000
     38     -32.7007      2.00000
     39     -32.6799      2.00000
     40     -32.6674      2.00000
     41     -32.6526      2.00000
     42     -32.6448      2.00000
     43     -32.6389      2.00000
     44     -32.5216      2.00000
     45     -32.5120      2.00000
     46     -32.5031      2.00000
     47     -32.4963      2.00000
     48     -32.4945      2.00000
     49     -32.4798      2.00000
     50     -32.4462      2.00000
     51     -32.4192      2.00000
     52     -32.4150      2.00000
     53     -32.4086      2.00000
     54     -32.4046      2.00000
     55     -32.3819      2.00000
     56     -32.3812      2.00000
     57     -32.3653      2.00000
     58     -32.3261      2.00000
     59     -32.3245      2.00000
     60     -32.3007      2.00000
[...]
    178       2.2489     -0.00000
    179       2.3058     -0.00000
    180       2.3229     -0.00000
    181       2.4024     -0.00000
    182       2.5268     -0.00000
    183       2.6333      0.00000
    184       2.6784      0.00000
    185       2.7801      0.00000
    186       2.7922      0.00000
    187       3.0191      0.00000
    188       3.0784      0.00000
    189       3.1429      0.00000
    190       3.3398      0.00000
    191       3.4112      0.00000
    192       3.4418      0.00000

 soft charge-density along one line, spin component           1
         0         1         2         3         4         5         6         7         8         9
 total charge-density along one line

------------------------ aborting loop because EDIFF is reached ----------------------------------------

  FORCE on cell =-STRESS in cart. coord.  units (eV):
  Direction    XX          YY          ZZ          XY          YZ          ZX
  Alpha Z   243.40285   243.40285   243.40285
  Ewald   96821.47071 96801.25358************     0.00000     0.00000  -772.12570
  Hartree104293.62318104371.13399-97729.99030     0.00000    -0.00000  -458.36388
  E(xc)   -1301.52113 -1301.53374 -1303.10272     0.00000     0.00000    -0.68449
  Local  ************************203661.86611    -0.00000    -0.00000  1236.03659
  n-local  -177.72683  -218.03295  -177.43099     0.68111    -0.08333    10.12128
  augment  1219.49622  1239.58468  1217.00721    -0.00000    -0.00000    -4.18146
  Kinetic  3122.27684  3171.44445  3126.14970     1.10933    -0.29090   -36.97362
  Fock        0.00000     0.00000     0.00000     0.00000     0.00000     0.00000
  Total     -16.95045   -17.93016     7.52941    -0.00000     0.00000   -26.17127
  in kB     -16.39812   -17.34592     7.28407    -0.00000     0.00000   -25.31849

 VOLUME and BASIS-vectors are now :
  energy-cutoff  :      520.00
  volume of cell :     1656.14
      direct lattice vectors                 reciprocal lattice vectors
    10.159529953  0.000000000  0.000000000     0.098429751 -0.000000000  0.012037869
     0.000000000  5.858455502  0.000000000     0.000000000  0.170693453 -0.000000000
    -3.403016409  0.000000000 27.825360602     0.000000000  0.000000000  0.035938438

  length of vectors
    10.159529953  5.858455502 28.032681165     0.099163129  0.170693453  0.035938438

 FORCES acting on ions
    electron-ion (+dipol)            ewald-force                    non-local-force                 convergence-correction
   -.675E+02 -.199E-12 0.252E+04   0.634E+02 -.286E-13 -.251E+04   0.408E+01 -.167E-15 -.581E+01   0.113E-03 -.168E-12 0.119E-02
   0.157E+02 -.130E-11 -.172E+03   -.157E+02 -.158E-13 0.172E+03   -.132E+00 0.139E-16 0.520E+00   0.139E-03 -.380E-13 -.124E-02
   -.183E+02 0.411E-12 0.149E+04   0.182E+02 -.140E-13 -.149E+04   0.288E+00 0.278E-16 0.649E+00   -.276E-03 -.775E-13 0.111E-02
   -.690E+02 -.940E-12 -.158E+04   0.685E+02 0.124E-13 0.158E+04   0.872E+00 -.104E-16 -.377E+00   0.508E-03 -.262E-13 -.277E-02
   0.389E+02 -.664E-12 -.260E+04   -.360E+02 0.501E-13 0.259E+04   -.271E+01 0.163E-15 0.566E+01   -.211E-03 0.141E-13 -.165E-02
   0.264E+02 0.216E-11 -.911E+02   -.264E+02 0.289E-13 0.911E+02   -.285E+00 -.694E-17 -.234E+00   -.791E-04 0.631E-13 -.104E-02
   -.128E+02 0.998E-11 0.152E+04   0.131E+02 -.650E-13 -.152E+04   -.446E+00 -.139E-16 -.512E+00   -.261E-03 0.123E-12 0.762E-03
   -.666E+02 0.270E-11 -.160E+04   0.673E+02 0.194E-13 0.160E+04   -.358E+00 -.173E-16 -.618E+00   0.476E-03 -.171E-13 -.331E-02
   0.529E+02 -.837E-13 0.148E+04   -.536E+02 -.153E-14 -.148E+04   0.706E+00 -.252E-16 -.884E+00   0.347E-03 -.590E-13 0.116E-02
   0.463E+02 -.236E-12 -.172E+04   -.468E+02 0.373E-13 0.172E+04   0.275E+00 0.555E-16 0.201E+01   -.550E-03 -.556E-13 -.292E-02
   -.417E+02 -.112E-11 -.609E+02   0.419E+02 0.141E-13 0.606E+02   -.139E+00 0.000E+00 0.427E+00   -.154E-03 -.140E-13 -.137E-02
   0.301E+02 -.280E-12 0.256E+04   -.259E+02 -.184E-13 -.255E+04   -.316E+01 -.173E-15 -.600E+01   -.866E-04 -.194E-12 0.155E-02
   0.230E+03 0.636E-12 0.125E+04   -.234E+03 0.257E-13 -.124E+04   0.114E+01 -.416E-16 -.146E+01   0.471E-03 0.116E-12 0.655E-03
   0.220E+03 -.492E-11 -.193E+04   -.224E+03 -.128E-13 0.193E+04   0.131E+01 -.139E-16 -.674E+00   -.498E-03 0.108E-13 -.383E-02
   -.200E+03 -.145E-12 0.256E+03   0.204E+03 -.340E-13 -.259E+03   -.833E+00 0.278E-16 0.830E+00   0.242E-03 0.121E-13 -.113E-02
   -.238E+01 -.718E-11 -.257E+04   0.231E+01 0.337E-13 0.256E+04   -.428E+00 0.215E-15 0.741E+01   0.802E-04 0.877E-14 -.228E-02
   -.299E+01 -.139E+02 0.402E+03   0.358E+01 0.131E+02 -.401E+03   -.542E+00 0.759E+00 -.881E+00   0.771E-04 0.652E-04 0.244E-03
   0.924E+01 0.273E+02 -.415E+03   -.853E+01 -.266E+02 0.415E+03   -.811E+00 -.590E+00 0.254E+00   0.118E-03 -.609E-04 -.870E-03
   0.205E+02 0.195E+02 0.234E+02   -.215E+02 -.214E+02 -.249E+02   0.784E+00 0.293E+01 0.172E+01   -.170E-03 -.451E-04 -.189E-03
   -.125E+02 0.217E+02 -.665E+03   0.111E+02 -.230E+02 0.662E+03   0.104E+01 0.250E+01 0.329E+01   0.204E-03 -.170E-03 -.450E-03
   -.299E+01 0.139E+02 0.402E+03   0.358E+01 -.131E+02 -.401E+03   -.542E+00 -.759E+00 -.881E+00   0.771E-04 -.652E-04 0.244E-03
   0.924E+01 -.273E+02 -.415E+03   -.853E+01 0.266E+02 0.415E+03   -.811E+00 0.590E+00 0.254E+00   0.118E-03 0.609E-04 -.870E-03
   0.205E+02 -.195E+02 0.234E+02   -.215E+02 0.214E+02 -.249E+02   0.784E+00 -.293E+01 0.172E+01   -.170E-03 0.451E-04 -.189E-03
   -.125E+02 -.217E+02 -.665E+03   0.111E+02 0.230E+02 0.662E+03   0.104E+01 -.250E+01 0.329E+01   0.204E-03 0.170E-03 -.450E-03
   -.918E+01 0.860E+01 -.327E+02   0.912E+01 -.872E+01 0.325E+02   0.172E+00 0.616E-02 0.181E+00   0.171E-03 0.754E-04 -.394E-03
   -.120E+02 -.437E+02 0.659E+03   0.125E+02 0.419E+02 -.657E+03   -.412E+00 0.181E+01 -.308E+01   -.407E-05 0.305E-04 0.348E-03
   -.848E+01 0.433E+02 -.464E+03   0.914E+01 -.444E+02 0.465E+03   -.768E+00 0.186E+01 -.235E+00   -.426E-04 -.112E-03 -.851E-03
   -.156E+02 0.738E+01 0.327E+03   0.163E+02 -.920E+01 -.327E+03   -.551E+00 0.248E+01 -.968E+00   -.758E-04 0.189E-05 0.348E-03
   -.918E+01 -.860E+01 -.327E+02   0.912E+01 0.872E+01 0.325E+02   0.172E+00 -.616E-02 0.181E+00   0.171E-03 -.754E-04 -.394E-03
   -.120E+02 0.437E+02 0.659E+03   0.125E+02 -.419E+02 -.657E+03   -.412E+00 -.181E+01 -.308E+01   -.407E-05 -.305E-04 0.348E-03
   -.848E+01 -.433E+02 -.464E+03   0.914E+01 0.444E+02 0.465E+03   -.768E+00 -.186E+01 -.235E+00   -.426E-04 0.112E-03 -.851E-03
   -.156E+02 -.738E+01 0.327E+03   0.163E+02 0.920E+01 -.327E+03   -.551E+00 -.248E+01 -.968E+00   -.758E-04 -.189E-05 0.348E-03
   0.103E+02 -.289E-11 -.923E+03   -.107E+02 0.173E-13 0.923E+03   0.346E+00 -.694E-17 -.186E+00   -.936E-03 0.251E-13 -.238E-02
   -.136E+03 0.225E-11 0.251E+04   0.131E+03 -.598E-14 -.251E+04   0.750E+01 -.139E-16 -.455E+00   -.845E-03 0.779E-13 0.218E-02
   -.585E+01 -.532E-12 -.838E+00   0.142E-12 0.611E-13 -.909E-12   0.585E+01 0.423E-15 0.855E+00   -.966E-03 -.217E-12 -.189E-01

 POSITION                                       TOTAL-FORCE (eV/Angst)
      8.93760      0.00000      9.21574        -0.040493      0.000000      0.497786
      3.27247      0.00000     14.00206        -0.166422      0.000000      0.470923
      6.31661      0.00000     11.43014         0.150298      0.000000     -0.210037
      0.65148      0.00000     16.21646         0.314851      0.000000     -0.151980
     -2.26142      2.92923     18.67750         0.179696     -0.000000     -0.940495
      3.40371      2.92923     13.89118        -0.234234      0.000000     -0.276923
      6.18537      2.92923     11.54102        -0.151548      0.000000     -0.071166
      0.52024      2.92923     16.32735         0.393845      0.000000      0.064576
      1.15651      0.00000     11.49801        -0.023926      0.000000     -0.116220
      5.65091      0.00000     16.28434        -0.216402      0.000000     -0.130018
      8.43257      0.00000     13.93418         0.000429      0.000000      0.069484
      3.93817      0.00000      9.14786         0.955271      0.000000      1.866250
      0.86829      2.92923     11.74152        -2.582182      0.000000      2.174147
      5.36269      2.92923     16.52784        -3.393155      0.000000      3.116981
     -1.43874      2.92923     13.69068         3.017320     -0.000000     -2.045708
      3.05566      2.92923     18.47700        -0.489349     -0.000000     -1.283385
      8.71783      1.42176     11.48451         0.041595     -0.058498     -0.529520
      3.05270      1.42176     16.27083        -0.096753      0.135586      0.396241
      5.75597      1.25322     13.73997        -0.161159      0.948089      0.259889
      0.09084      1.25322     18.52630        -0.396607      1.236914      0.124688
      8.71783      4.43669     11.48451         0.041595      0.058498     -0.529520
      3.05270      4.43669     16.27083        -0.096753     -0.135586      0.396241
      5.75597      4.60523     13.73997        -0.161159     -0.948089      0.259889
      0.09084      4.60523     18.52630        -0.396607     -1.236914      0.124688
      0.87125      1.42176     13.94769         0.113487     -0.111382      0.020591
      6.53638      1.42176      9.16137         0.128221      0.021573     -0.195827
     -1.83202      1.25322     16.47855        -0.099454      0.793317      0.508781
      3.83311      1.25322     11.69222         0.144405      0.672934     -0.262227
      0.87125      4.43669     13.94769         0.113487      0.111382      0.020591
      6.53638      4.43669      9.16137         0.128221     -0.021573     -0.195827
     -1.83202      4.60523     16.47855        -0.099454     -0.793317      0.508781
      3.83311      4.60523     11.69222         0.144405     -0.672934     -0.262227
      7.04174      2.92923     15.10926        -0.111238      0.000000      0.101585
      2.54734      2.92923     10.32294         3.049771     -0.000000     -3.781031
    total drift:                                0.000074     -0.000000     -0.001975

  FREE ENERGIE OF THE ION-ELECTRON SYSTEM (eV)
  free  energy   TOTEN  =      -177.04339203 eV

  energy  without entropy=     -177.03032420  energy(sigma->0) =     -177.03903609

 writing wavefunctions