 vasp.6.5.0 16Dec24 (build Apr 17 2025 17:55:45) complex

 executed on             LinuxIFC date 2025.06.10  15:38:07

 INCAR:
   ISTART = 0
   ICHARG = 2
   PREC = N
   LREAL = .FALSE.
   ENCUT = 520
   ALGO = N
   NELM = 500
   EDIFF = 1E-05
   IBRION = -1
   ISIF = 3
   NSW = 0
   EDIFFG = -0.01
   ISMEAR = 1
   SIGMA = 0.1
   LVHAR = .TRUE.
   LVTOT = .TRUE.

 POTCAR:    PAW_PBE Ti_sv 26Sep2005
 POTCAR:    PAW_PBE Al 04Jan2001
 POTCAR:    PAW_PBE Ga_d 06Jul2010
|           W    W    AA    RRRRR   N    N  II  N    N   GGGG   !!!           |
|           W    W   A  A   R    R  NN   N  II  NN   N  G    G  !!!           |
|           W    W  A    A  R    R  N N  N  II  N N  N  G       !!!           |
|           W WW W  AAAAAA  RRRRR   N  N N  II  N  N N  G  GGG   !            |
|           WW  WW  A    A  R   R   N   NN  II  N   NN  G    G                |
|           W    W  A    A  R    R  N    N  II  N    N   GGGG   !!!           |
|     For optimal performance we recommend to set                             |
|       NCORE = 2 up to number-of-cores-per-socket                            |
|     This setting can greatly improve the performance of VASP for DFT.       |
|     The default, NCORE=1 might be grossly inefficient on modern             |
|     multi-core architectures or massively parallel machines. Do your        |
|     Unfortunately you need to use the default for GW and RPA                |
|     calculations (for HF NCORE is supported but not extensively tested      |
|     yet).                                                                   |

   TITEL  = PAW_PBE Ti_sv 26Sep2005
   POMASS =   47.880; ZVAL   =   12.000    mass and valenz
   ENMAX  =  274.610; ENMIN  =  205.957 eV

   TITEL  = PAW_PBE Al 04Jan2001
   POMASS =   26.981; ZVAL   =    3.000    mass and valenz
   ENMAX  =  240.300; ENMIN  =  180.225 eV

   TITEL  = PAW_PBE Ga_d 06Jul2010
   POMASS =   69.723; ZVAL   =   13.000    mass and valenz
   ENMAX  =  282.691; ENMIN  =  212.018 eV

  PAW_PBE Ti_sv 26Sep2005               :
  PAW_PBE Al 04Jan2001                  :
  PAW_PBE Ga_d 06Jul2010                :

 POSCAR: Generated by VASPKIT code
  positions in direct lattice

 exchange-correlation table for PE
   RHO(1)=    0.500       N(1)  =     2000
   RHO(2)=  100.500       N(2)  =     4000

 ion  position               nearest neighbor table
   1  0.000  0.019  0.383-  11 2.78   9 2.78  10 2.85  12 2.85
   2  0.000  0.481  0.383-   9 2.78  11 2.78  10 2.85  12 2.85
   3  0.500  0.996  0.383-  10 2.92  12 2.92   9 2.96  11 2.96
   4  0.500  0.504  0.383-  10 2.92  12 2.92  11 2.96   9 2.96
   5  0.000  0.996  0.532-  10 2.92  14 2.92  12 2.92  16 2.92  13 2.96  11 2.96  15 2.96   9 2.96

   6  0.000  0.504  0.532-  12 2.92  16 2.92  14 2.92  10 2.92  13 2.96  11 2.96  15 2.96   9 2.96

   7  0.500  0.046  0.532-  17 2.46  11 2.72  13 2.72  15 2.72   9 2.72
   8  0.500  0.454  0.532-  17 2.46  11 2.72  13 2.72  15 2.72   9 2.72
   9  0.243  0.250  0.455-   7 2.72   8 2.72   2 2.78   1 2.78  11 2.84   3 2.96   4 2.96   6 2.96
                             5 2.96  11 3.01  13 3.01
  10  0.214  0.750  0.446-  17 2.37  12 2.51   1 2.85   2 2.85   5 2.92   6 2.92   3 2.92   4 2.92
                            12 3.35  14 3.35
  11  0.757  0.250  0.455-   7 2.72   8 2.72   1 2.78   2 2.78   9 2.84   4 2.96   3 2.96   6 2.96
                             5 2.96   9 3.01  15 3.01
  12  0.786  0.750  0.446-  17 2.37  10 2.51   1 2.85   2 2.85   6 2.92   5 2.92   3 2.92   4 2.92
                            10 3.35  16 3.35
  13  0.243  0.250  0.609-   7 2.72   8 2.72  15 2.84   6 2.96   5 2.96  15 3.01   9 3.01
  14  0.214  0.750  0.617-  17 2.37  16 2.51   5 2.92   6 2.92  16 3.35  10 3.35
  15  0.757  0.250  0.609-   7 2.72   8 2.72  13 2.84   6 2.96   5 2.96  13 3.01  11 3.01
  16  0.786  0.750  0.617-  17 2.37  14 2.51   6 2.92   5 2.92  14 3.35  12 3.35
  17  0.500  0.750  0.532-  10 2.37  12 2.37  14 2.37  16 2.37   7 2.46   8 2.46

  LATTYP: Found a simple orthorhombic cell.
 ALAT       =     5.8584555020
 B/A-ratio  =     1.4168024267
 C/A-ratio  =     3.3464849690

  Lattice vectors:

 A1 = (   5.8584555020,   0.0000000000,   0.0000000000)
 A2 = (   0.0000000000,   8.3002739718,   0.0000000000)
 A3 = (   0.0000000000,   0.0000000000,  19.6052332789)

Analysis of symmetry for initial positions (statically):
 Subroutine PRICEL returns:
 Original cell was already a primitive cell.

 Routine SETGRP: Setting up the symmetry group for a
 simple orthorhombic supercell.

 Subroutine GETGRP returns: Found  4 space group operations
 (whereof  2 operations were pure point group operations)
 out of a pool of  8 trial point group operations.

The static configuration has the point symmetry C_1h.
 The point group associated with its full space group is C_2v.

Analysis of symmetry for dynamics (positions and initial velocities):
 Subroutine PRICEL returns:
 Original cell was already a primitive cell.

 Routine SETGRP: Setting up the symmetry group for a
 simple orthorhombic supercell.

 Subroutine GETGRP returns: Found  4 space group operations
 (whereof  2 operations were pure point group operations)
 out of a pool of  8 trial point group operations.

The dynamic configuration has the point symmetry C_1h.
 The point group associated with its full space group is C_2v.

 Subroutine INISYM returns: Found  4 space group operations
 (whereof  2 operations are pure point group operations),
 and found     1 'primitive' translations

                                     Primitive cell

  volume of cell :     953.3395

  direct lattice vectors                    reciprocal lattice vectors
     5.858455502  0.000000000  0.000000000     0.170693453 -0.000000000 -0.000000000
     0.000000000  8.300273972  0.000000000     0.000000000  0.120477951 -0.000000000
     0.000000000  0.000000000 19.605233279     0.000000000  0.000000000  0.051006789

  length of vectors
     5.858455502  8.300273972 19.605233279     0.170693453  0.120477951  0.051006789

  position of ions in fractional coordinates (direct lattice)
     1.000000000  0.018673676  0.382550919
     1.000000000  0.481326324  0.382550919
     0.500000000  0.995507135  0.382550919
     0.500000000  0.504492865  0.382550919
     1.000000000  0.995507135  0.531961421
     1.000000000  0.504492865  0.531961421
     0.500000000  0.046382817  0.531961421
     0.500000000  0.453617183  0.531961421
     0.242685310  0.250000000  0.455070387
     0.213916829  0.750000000  0.446473760
     0.757314690  0.250000000  0.455070387
     0.786083171  0.750000000  0.446473760
     0.242685310  0.250000000  0.608852455
     0.213916829  0.750000000  0.617449081
     0.757314690  0.250000000  0.608852455
     0.786083171  0.750000000  0.617449081
     0.500000000  0.750000000  0.531961421

  ion indices of the primitive-cell ions
   primitive index   ion index
                 1           1
                 2           2
                 3           3
                 4           4
                 5           5
                 6           6
                 7           7
                 8           8
                 9           9
                10          10
                11          11
                12          12
                13          13
                14          14
                15          15
                16          16
                17          17

 KPOINTS: K-Spacing Value to Generate K-Mesh: 0.03

Automatic generation of k-mesh.
 Grid dimensions read from file:
 generate k-points for:    6    4    1

 Generating k-lattice:

  Cartesian coordinates                     Fractional coordinates (reciprocal lattice)
     0.028448909 -0.000000000 -0.000000000     0.166666667 -0.000000000  0.000000000
     0.000000000  0.030119488 -0.000000000     0.000000000  0.250000000  0.000000000
     0.000000000  0.000000000  0.051006789     0.000000000  0.000000000  1.000000000

  Length of vectors
     0.028448909  0.030119488  0.051006789

  Shift w.r.t. Gamma in fractional coordinates (k-lattice)
     0.000000000  0.000000000  0.000000000

 Subroutine IBZKPT returns following result:

 Found     12 irreducible k-points:

 Following reciprocal coordinates:
            Coordinates               Weight
  0.000000  0.000000  0.000000      1.000000
  0.166667  0.000000  0.000000      2.000000
  0.333333  0.000000  0.000000      2.000000
  0.500000  0.000000  0.000000      1.000000
  0.000000  0.250000  0.000000      2.000000
  0.166667  0.250000  0.000000      4.000000
  0.333333  0.250000  0.000000      4.000000
  0.500000  0.250000  0.000000      2.000000
  0.000000  0.500000  0.000000      1.000000
  0.166667  0.500000  0.000000      2.000000
  0.333333  0.500000  0.000000      2.000000
  0.500000  0.500000  0.000000      1.000000

 Following cartesian coordinates:
            Coordinates               Weight
  0.000000  0.000000  0.000000      1.000000
  0.028449  0.000000  0.000000      2.000000
  0.056898  0.000000  0.000000      2.000000
  0.085347  0.000000  0.000000      1.000000
  0.000000  0.030119  0.000000      2.000000
  0.028449  0.030119  0.000000      4.000000
  0.056898  0.030119  0.000000      4.000000
  0.085347  0.030119  0.000000      2.000000
  0.000000  0.060239  0.000000      1.000000
  0.028449  0.060239  0.000000      2.000000
  0.056898  0.060239  0.000000      2.000000
  0.085347  0.060239  0.000000      1.000000

 SYSTEM =  unknown system
 POSCAR =  Generated by VASPKIT code

 Startparameter for this run:
   NWRITE =      2    write-flag & timer
   PREC   = n         normal or accurate (medium, high low for compatibility)
   ISTART =      0    job   : 0-new  1-cont  2-samecut
   ICHARG =      2    charge: 1-file 2-atom 10-const
   ISPIN  =      1    spin polarized calculation?
   LNONCOLLINEAR =      F non collinear calculations
   LSORBIT =      F    spin-orbit coupling
   INIWAV =      1    electr: 0-lowe 1-rand  2-diag
   LASPH  =      F    aspherical Exc in radial PAW
 Electronic Relaxation 1
   ENCUT  =  520.0 eV  38.22 Ry    6.18 a.u.  10.89 15.43 36.45*2*pi/ulx,y,z
   ENINI  =  520.0     initial cutoff
   ENAUG  =  490.7 eV  augmentation charge cutoff
   NELM   =    500;   NELMIN=  2; NELMDL= -5     # of ELM steps
   EDIFF  = 0.1E-04   stopping-criterion for ELM
   LREAL  =      F    real-space projection
   NLSPLINE    = F    spline interpolate recip. space projectors
   LCOMPAT=      F    compatible to vasp.4.4
   GGA_COMPAT  = T    GGA compatible to vasp.4.4-vasp.4.6
   LMAXPAW     = -100 max onsite density
   LMAXMIX     =    2 max onsite mixed and CHGCAR
   VOSKOWN=      0    Vosko Wilk Nusair interpolation
   ROPT   =    0.00000   0.00000   0.00000
 Ionic relaxation
   EDIFFG = -.1E-01   stopping-criterion for IOM
   NSW    =      0    number of steps for IOM
   NBLOCK =      1;   KBLOCK =      1    inner block; outer block
   IBRION =     -1    ionic relax: 0-MD 1-quasi-New 2-CG
   NFREE  =      0    steps in history (QN), initial steepest desc. (CG)
   ISIF   =      3    stress and relaxation
   IWAVPR =     10    prediction:  0-non 1-charg 2-wave 3-comb
   ISYM   =      2    0-nonsym 1-usesym 2-fastsym
[...]
 k-point     3 :   0.3333 0.0000 0.0000  plane waves:   25702
 k-point     4 :   0.5000 0.0000 0.0000  plane waves:   25762
 k-point     5 :   0.0000 0.2500 0.0000  plane waves:   25657
 k-point     6 :   0.1667 0.2500 0.0000  plane waves:   25671
 k-point     7 :   0.3333 0.2500 0.0000  plane waves:   25700
 k-point     8 :   0.5000 0.2500 0.0000  plane waves:   25686
 k-point     9 :   0.0000 0.5000 0.0000  plane waves:   25642
 k-point    10 :   0.1667 0.5000 0.0000  plane waves:   25656
 k-point    11 :   0.3333 0.5000 0.0000  plane waves:   25626
 k-point    12 :   0.5000 0.5000 0.0000  plane waves:   25728

 maximum and minimum number of plane-waves per node :     25762    25607

 maximum number of plane-waves:     25762
 maximum index in each direction:
   IXMAX=   10   IYMAX=   15   IZMAX=   36
   IXMIN=  -11   IYMIN=  -15   IZMIN=  -36

 serial   3D FFT for wavefunctions
 parallel 3D FFT for charge:
    minimum data exchange during FFTs selected (reduces bandwidth)

 Broyden mixing: mesh for mixing (old mesh)
   NGX = 21   NGY = 31   NGZ = 73
  (NGX  = 72   NGY  = 96   NGZ  =224)
  gives a total of  47523 points

 initial charge density was supplied:
 charge density of overlapping atoms calculated
 number of electron     133.0000000 magnetization
 keeping initial charge density in first step

 Maximum index for augmentation-charges          721 (set IRDMAX)

 First call to EWALD:  gamma=   0.180
 Maximum number of real-space cells   4x   3x   2
 Maximum number of reciprocal cells   2x   2x   5

--------------------------------------- Ionic step        1  -------------------------------------------

--------------------------------------- Iteration      1(   1)  ---------------------------------------

 eigenvalue-minimisations  :  3072
 total energy-change (2. order) : 0.9611502E+03  (-0.6510988E+04)
 number of electron     133.0000000 magnetization
 augmentation part      133.0000000 magnetization

 Free energy of the ion-electron system (eV)
  alpha Z        PSCENC =       105.70989314
  Ewald energy   TEWEN  =     18413.80910048
  -Hartree energ DENC   =    -31415.92738679
  -exchange      EXHF   =         0.00000000
  -V(xc)+E(xc)   XCENC  =       322.44522481
  PAW double counting   =     12249.27850793   -12170.51614461
  entropy T*S    EENTRO =        -0.00186626
  eigenvalues    EBANDS =     -1825.46186700
  atomic energy  EATOM  =     15281.81476201
  Solvation  Ediel_sol  =         0.00000000
  free energy    TOTEN  =       961.15022371 eV

  energy without entropy =      961.15208997  energy(sigma->0) =      961.15084580

[...]

 eigenvalue-minimisations  :  3520
 total energy-change (2. order) :-0.9563302E+03  (-0.9084245E+03)
 number of electron     133.0000000 magnetization
 augmentation part      133.0000000 magnetization

[...]

 Broyden mixing:
  rms(total) = 0.25945E+01    rms(broyden)= 0.25945E+01
  rms(prec ) = 0.31685E+01
  weight for this iteration     100.00

[...]

 eigenvalues of (default mixing * dielectric matrix)
  average eigenvalue GAMMA=   0.2454
  0.2454

[...]

 eigenvalue-minimisations  :  4160
 total energy-change (2. order) : 0.1492371E-02  (-0.2227302E-02)
 number of electron     132.9999868 magnetization
 augmentation part       37.8530403 magnetization

[...]

 Broyden mixing:
  rms(total) = 0.49115E-04    rms(broyden)= 0.49111E-04
  rms(prec ) = 0.59249E-04
  weight for this iteration     100.00

 eigenvalues of (default mixing * dielectric matrix)
  average eigenvalue GAMMA=   1.7975
  8.5733  5.5473  3.1268  3.1268  2.2682  2.2682  2.1455  1.3917  1.3917  0.1521
  0.1586  0.2549  0.3808  1.0822  1.0822  0.9260  0.8841  0.8841  0.6686  0.6686
  0.7650

[...]

--------------------------------------- Iteration      1(  27)  ---------------------------------------

 eigenvalue-minimisations  :  3392
 total energy-change (2. order) :-0.4590309E-05  (-0.2043280E-07)
 number of electron     132.9999868 magnetization
 augmentation part       37.8289071 magnetization

 Free energy of the ion-electron system (eV)
  alpha Z        PSCENC =       105.70989314
  Ewald energy   TEWEN  =     18413.80910048
  -Hartree energ DENC   =    -31485.31362175
  -exchange      EXHF   =         0.00000000
  -V(xc)+E(xc)   XCENC  =       315.41449197
  PAW double counting   =     14081.99688557   -13978.30147660
  entropy T*S    EENTRO =         0.00650177
  eigenvalues    EBANDS =     -2821.27535683
  atomic energy  EATOM  =     15281.81476201
  Solvation  Ediel_sol  =         0.00000000
  free energy    TOTEN  =       -86.13882025 eV

  energy without entropy =      -86.14532202  energy(sigma->0) =      -86.14098750

 average (electrostatic) potential at core
  the test charge radii are     1.0397  1.0406  1.0314
  (the norm of the test charge is              1.0000)
       1 -81.2439       2 -81.2439       3 -81.4208       4 -81.4208       5 -81.1368
       6 -81.1368       7 -80.7874       8 -80.7874       9 -79.7953      10 -80.1699
      11 -79.7953      12 -80.1699      13 -80.3509      14 -80.8129      15 -80.3509
      16 -80.8129      17 -70.6404

 E-fermi :  -0.0660     XC(G=0):  -4.4094     alpha+bet : -4.6471

 val. band max:       -0.0693486745   @ k =   0.3333   0.5000   0.0000
 cond. band min:      -0.0628334833   @ k =   0.5000   0.0000   0.0000
 fundamental gap:      0.0065151912
 Fermi energy:        -0.0660349410

 k-point     1 :       0.0000    0.0000    0.0000
  band No.  band energies     occupation
      1     -57.3612      2.00000
      2     -57.3609      2.00000
      3     -57.1909      2.00000
      4     -57.1904      2.00000
      5     -57.0581      2.00000
      6     -57.0578      2.00000
      7     -56.7426      2.00000
      8     -56.7392      2.00000
      9     -33.7785      2.00000
     10     -33.7755      2.00000
     11     -33.6577      2.00000
     12     -33.6520      2.00000
     13     -33.5969      2.00000
     14     -33.5956      2.00000
     15     -33.5221      2.00000
     16     -33.5209      2.00000
     17     -33.4930      2.00000
     18     -33.4811      2.00000
     19     -33.4032      2.00000
     20     -33.3938      2.00000
     21     -33.2979      2.00000
     22     -33.2960      2.00000
     23     -33.2681      2.00000
     24     -33.2672      2.00000
     25     -33.1890      2.00000
     26     -33.1884      2.00000
     27     -33.0758      2.00000
     28     -33.0683      2.00000
     29     -33.0675      2.00000
     30     -33.0208      2.00000
     31     -32.8878      2.00000
     32     -32.8837      2.00000
     33     -15.3320      2.00000
     34     -15.2181      2.00000
     35     -15.1897      2.00000
     36     -15.1346      2.00000
     37     -15.1254      2.00000
     38      -9.2417      2.00000
     39      -7.1710      2.00000
     40      -6.5354      2.00000
     41      -5.4910      2.00000
     42      -5.0907      2.00000
     43      -4.9008      2.00000
     44      -4.5165      2.00000
     45      -4.1084      2.00000
     46      -3.3310      2.00000
     47      -2.9631      2.00000
     48      -2.9400      2.00000
     49      -2.8011      2.00000
     50      -2.5691      2.00000
     51      -2.3047      2.00000
     52      -2.0109      2.00000
     53      -1.8926      2.00000
     54      -1.7162      2.00000
     55      -1.5593      2.00000
     56      -1.2139      2.00000
     57      -1.1373      2.00000
     58      -0.9482      2.00000
     59      -0.9140      2.00000
     60      -0.7666      2.00000
[...]
    114       5.1362      0.00000
    115       5.1732      0.00000
    116       5.2464      0.00000
    117       5.2908      0.00000
    118       5.4139      0.00000
    119       5.7135      0.00000
    120       5.8573      0.00000
    121       5.9008      0.00000
    122       5.9346      0.00000
    123       5.9587      0.00000
    124       6.1585      0.00000
    125       6.1946      0.00000
    126       6.2116      0.00000
    127       6.3271      0.00000
    128       6.4731      0.00000

[...]

 k-point    12 :       0.5000    0.5000    0.0000
  band No.  band energies     occupation
      1     -57.3594      2.00000
      2     -57.3593      2.00000
      3     -57.1927      2.00000
      4     -57.1923      2.00000
      5     -57.0572      2.00000
      6     -57.0571      2.00000
      7     -56.7434      2.00000
      8     -56.7401      2.00000
      9     -33.7761      2.00000
     10     -33.7751      2.00000
     11     -33.6529      2.00000
     12     -33.6521      2.00000
     13     -33.5993      2.00000
     14     -33.5986      2.00000
     15     -33.4942      2.00000
     16     -33.4862      2.00000
     17     -33.4117      2.00000
     18     -33.4115      2.00000
     19     -33.3999      2.00000
     20     -33.3980      2.00000
     21     -33.3015      2.00000
     22     -33.3007      2.00000
     23     -33.2666      2.00000
     24     -33.2664      2.00000
     25     -33.2411      2.00000
     26     -33.2410      2.00000
     27     -33.0756      2.00000
     28     -33.0695      2.00000
     29     -33.0629      2.00000
     30     -33.0231      2.00000
     31     -32.9467      2.00000
     32     -32.9417      2.00000
     33     -15.3327      2.00000
     34     -15.2168      2.00000
     35     -15.1885      2.00000
     36     -15.1346      2.00000
     37     -15.1258      2.00000
     38      -8.7109      2.00000
     39      -7.1895      2.00000
     40      -6.4802      2.00000
     41      -6.3434      2.00000
     42      -5.5478      2.00000
     43      -5.3382      2.00000
     44      -4.7783      2.00000
     45      -4.6258      2.00000
     46      -2.6571      2.00000
     47      -2.6355      2.00000
     48      -2.6290      2.00000
     49      -2.5078      2.00000
     50      -2.1962      2.00000
     51      -1.8945      2.00000
     52      -1.8070      2.00000
     53      -1.7305      2.00000
     54      -1.3825      2.00000
     55      -1.2475      2.00000
     56      -1.1762      2.00000
     57      -0.9500      2.00000
     58      -0.9153      2.00000
     59      -0.6051      2.00000
     60      -0.5608      2.00000
[...]
    114       4.9870      0.00000
    115       5.0065      0.00000
    116       5.1997      0.00000
    117       5.2199      0.00000
    118       5.3106      0.00000
    119       5.3515      0.00000
    120       5.5093      0.00000
    121       5.5200      0.00000
    122       5.6642      0.00000
    123       5.7378      0.00000
    124       5.8472      0.00000
    125       5.9103      0.00000
    126       6.4694      0.00000
    127       6.6962      0.00000
    128       6.6991      0.00000

 soft charge-density along one line, spin component           1
         0         1         2         3         4         5         6         7         8         9
 total charge-density along one line

------------------------ aborting loop because EDIFF is reached ----------------------------------------

  FORCE on cell =-STRESS in cart. coord.  units (eV):
  Direction    XX          YY          ZZ          XY          YZ          ZX
  Alpha Z   105.70989   105.70989   105.70989
  Ewald   25138.26122 24408.67815-31133.14520     0.00000    -0.00000     0.00000
  Hartree 28666.85649 28062.25202-25243.80377    -0.00000    -0.00000    -0.00000
  E(xc)    -647.80338  -648.82181  -649.86667    -0.00000    -0.00000    -0.00000
  Local  -55376.09699-54008.48105 54859.02614    -0.00000     0.00000    -0.00000
  n-local  -127.64914   -80.46475  -100.92492     0.76222    -0.00000     0.00000
  augment   623.16036   602.00415   602.13606     0.00000    -0.00000     0.00000
  Kinetic  1607.65663  1547.88805  1553.32451    -2.40418     0.00000    -0.00000
  Fock        0.00000     0.00000     0.00000     0.00000     0.00000     0.00000
  Total      -9.90491   -11.23536    -7.54395    -0.00000    -0.00000    -0.00000
  in kB     -16.64614   -18.88209   -12.67833    -0.00000    -0.00000    -0.00000

 VOLUME and BASIS-vectors are now :
  energy-cutoff  :      520.00
  volume of cell :      953.34
      direct lattice vectors                 reciprocal lattice vectors
     5.858455502  0.000000000  0.000000000     0.170693453 -0.000000000 -0.000000000
     0.000000000  8.300273972  0.000000000     0.000000000  0.120477951 -0.000000000
     0.000000000  0.000000000 19.605233279     0.000000000  0.000000000  0.051006789

  length of vectors
     5.858455502  8.300273972 19.605233279     0.170693453  0.120477951  0.051006789

 FORCES acting on ions
    electron-ion (+dipol)            ewald-force                    non-local-force                 convergence-correction
   0.429E-14 -.116E+02 0.128E+04   0.224E-14 0.115E+02 -.127E+04   -.988E-16 0.100E+00 -.539E+01   -.681E-13 -.152E-03 0.347E-03
   0.121E-13 0.116E+02 0.128E+04   -.591E-13 -.115E+02 -.127E+04   -.112E-15 -.100E+00 -.539E+01   -.737E-13 0.152E-03 0.347E-03
   0.717E-12 -.100E+02 0.130E+04   -.371E-13 0.104E+02 -.130E+04   -.108E-15 -.271E+00 -.404E+01   0.214E-13 -.177E-03 0.313E-03
   0.729E-12 0.100E+02 0.130E+04   0.400E-13 -.104E+02 -.130E+04   -.581E-16 0.271E+00 -.404E+01   0.713E-13 0.177E-03 0.313E-03
   -.361E-13 -.512E+02 -.783E+03   0.581E-13 0.524E+02 0.782E+03   -.415E-16 -.960E+00 0.824E+00   0.197E-14 0.245E-04 0.252E-05
   -.294E-13 0.512E+02 -.783E+03   -.820E-14 -.524E+02 0.782E+03   0.759E-16 0.960E+00 0.824E+00   0.160E-14 -.245E-04 0.252E-05
   0.685E-12 -.202E+03 -.780E+03   0.122E-12 0.203E+03 0.779E+03   -.309E-16 -.963E+00 0.862E+00   0.407E-13 -.234E-03 -.188E-03
   0.738E-12 0.202E+03 -.780E+03   -.740E-13 -.203E+03 0.779E+03   0.813E-16 0.963E+00 0.862E+00   0.748E-13 0.234E-03 -.188E-03
   0.893E+01 -.341E-13 0.876E+02   -.896E+01 0.369E-13 -.878E+02   -.764E-01 -.169E-17 -.831E-01   0.405E-04 0.456E-14 0.593E-04
   0.307E+02 0.332E-13 0.149E+03   -.323E+02 -.157E-13 -.151E+03   0.159E+01 0.954E-17 0.470E+00   0.517E-04 -.143E-13 0.460E-04
   -.893E+01 0.586E-12 0.876E+02   0.896E+01 -.357E-13 -.878E+02   0.764E-01 -.169E-17 -.831E-01   -.405E-04 0.697E-14 0.593E-04
   -.307E+02 0.272E-12 0.149E+03   0.323E+02 -.136E-13 -.151E+03   -.159E+01 0.954E-17 0.470E+00   -.517E-04 -.154E-13 0.460E-04
   0.173E+02 -.156E-13 -.415E+03   -.171E+02 0.342E-14 0.409E+03   -.680E+00 0.833E-16 0.445E+01   0.630E-05 -.764E-14 -.546E-04
   0.259E+02 0.444E-13 -.448E+03   -.281E+02 -.228E-13 0.445E+03   0.236E+01 0.694E-16 0.333E+01   -.645E-05 0.342E-15 -.468E-04
   -.173E+02 0.478E-12 -.415E+03   0.171E+02 -.888E-14 0.409E+03   0.680E+00 0.833E-16 0.445E+01   -.630E-05 -.895E-14 -.546E-04
   -.259E+02 0.348E-13 -.448E+03   0.281E+02 0.193E-13 0.445E+03   -.236E+01 0.694E-16 0.333E+01   0.645E-05 -.962E-16 -.468E-04
   0.118E-11 0.144E-11 -.784E+03   0.692E-13 -.554E-13 0.785E+03   -.191E-16 -.191E-16 -.937E+00   -.180E-13 -.109E-12 -.187E-03
   0.426E-11 0.853E-11 0.605E-01   -.186E-14 -.640E-13 -.568E-12   -.191E-16 -.142E-15 -.593E-01   0.510E-13 0.247E-12 0.771E-03

 POSITION                                       TOTAL-FORCE (eV/Angst)
      0.00000      0.15500      7.50000         0.000000      0.046169      0.743768
      0.00000      3.99514      7.50000         0.000000     -0.046169      0.743768
      2.92923      8.26298      7.50000         0.000000      0.088346      1.086949
      2.92923      4.18743      7.50000         0.000000     -0.088346      1.086949
      0.00000      8.26298     10.42923         0.000000      0.210886     -0.036616
      0.00000      4.18743     10.42923        -0.000000     -0.210886     -0.036616
      2.92923      0.38499     10.42923         0.000000      0.107499      0.040834
      2.92923      3.76515     10.42923        -0.000000     -0.107499      0.040834
      1.42176      2.07507      8.92176        -0.100562     -0.000000     -0.324740
      1.25322      6.22521      8.75322         0.044328     -0.000000     -1.111791
      4.43669      2.07507      8.92176         0.100562     -0.000000     -0.324740
      4.60523      6.22521      8.75322        -0.044328     -0.000000     -1.111791
      1.42176      2.07507     11.93669        -0.535593     -0.000000     -0.626719
      1.25322      6.22521     12.10523         0.157460      0.000000      0.134830
      4.43669      2.07507     11.93669         0.535593     -0.000000     -0.626719
      4.60523      6.22521     12.10523        -0.157460      0.000000      0.134830
      2.92923      6.22521     10.42923         0.000000      0.000000      0.186970
    total drift:                                0.000000      0.000000      0.001984

  FREE ENERGIE OF THE ION-ELECTRON SYSTEM (eV)
  free  energy   TOTEN  =       -86.13882025 eV

  energy  without entropy=      -86.14532202  energy(sigma->0) =      -86.14098750

 writing wavefunctions