 vasp.6.5.0 16Dec24 (build Apr 17 2025 17:55:45) complex

 executed on             LinuxIFC date 2025.06.04  10:22:35

 INCAR:
   ISTART = 0
   ICHARG = 2
   PREC = N
   LREAL = .FALSE.
   ENCUT = 520
   ALGO = N
   NELM = 500
   EDIFF = 1E-05
   IBRION = -1
   ISIF = 3
   NSW = 0
   EDIFFG = -0.01
   ISMEAR = 1
   SIGMA = 0.1

 POTCAR:    PAW_PBE Ti_sv 26Sep2005
 POTCAR:    PAW_PBE Al 04Jan2001
 POTCAR:    PAW_PBE Ga_d 06Jul2010
|           W    W    AA    RRRRR   N    N  II  N    N   GGGG   !!!           |
|           W    W   A  A   R    R  NN   N  II  NN   N  G    G  !!!           |
|           W    W  A    A  R    R  N N  N  II  N N  N  G       !!!           |
|           W WW W  AAAAAA  RRRRR   N  N N  II  N  N N  G  GGG   !            |
|           WW  WW  A    A  R   R   N   NN  II  N   NN  G    G                |
|           W    W  A    A  R    R  N    N  II  N    N   GGGG   !!!           |
|     For optimal performance we recommend to set                             |
|       NCORE = 2 up to number-of-cores-per-socket                            |
|     This setting can greatly improve the performance of VASP for DFT.       |
|     The default, NCORE=1 might be grossly inefficient on modern             |
|     multi-core architectures or massively parallel machines. Do your        |
|     Unfortunately you need to use the default for GW and RPA                |
|     calculations (for HF NCORE is supported but not extensively tested      |
|     yet).                                                                   |

   TITEL  = PAW_PBE Ti_sv 26Sep2005
   POMASS =   47.880; ZVAL   =   12.000    mass and valenz
   ENMAX  =  274.610; ENMIN  =  205.957 eV

   TITEL  = PAW_PBE Al 04Jan2001
   POMASS =   26.981; ZVAL   =    3.000    mass and valenz
   ENMAX  =  240.300; ENMIN  =  180.225 eV

   TITEL  = PAW_PBE Ga_d 06Jul2010
   POMASS =   69.723; ZVAL   =   13.000    mass and valenz
   ENMAX  =  282.691; ENMIN  =  212.018 eV

  PAW_PBE Ti_sv 26Sep2005               :
  PAW_PBE Al 04Jan2001                  :
  PAW_PBE Ga_d 06Jul2010                :

 POSCAR: Ti1 Al1
  positions in direct lattice
  velocities in cartesian coordinates

 exchange-correlation table for PE
   RHO(1)=    0.500       N(1)  =     2000
   RHO(2)=  100.500       N(2)  =     4000

 ion  position               nearest neighbor table
   1  0.000  0.000  0.019-   9 2.78  11 2.78  13 2.78  15 2.78  10 2.85  14 2.85  12 2.85  16 2.85

   2  0.000  0.000  0.481-   9 2.78  11 2.78  13 2.78  15 2.78  10 2.85  14 2.85  12 2.85  16 2.85

[...]

   6  0.500  0.000  0.504-  10 2.92  12 2.92  14 2.92  16 2.92  13 2.96  11 2.96  15 2.96   9 2.96

   7  0.500  0.500  0.046-  17 2.46  11 2.72  13 2.72  15 2.72   9 2.72
   8  0.500  0.500  0.454-  17 2.46  11 2.72  13 2.72  15 2.72   9 2.72
   9  0.243  0.243  0.250-   7 2.72   8 2.72   1 2.78   2 2.78  11 2.84  13 2.84   3 2.96   4 2.96
                             5 2.96   6 2.96  13 3.01  11 3.01
  10  0.214  0.214  0.750-  17 2.37  14 2.51  12 2.51   2 2.85   1 2.85   6 2.92   3 2.92   4 2.92
                             5 2.92  12 3.35  14 3.35
  11  0.243  0.757  0.250-   7 2.72   8 2.72   1 2.78   2 2.78   9 2.84  15 2.84   3 2.96   4 2.96
                             5 2.96   6 2.96  15 3.01   9 3.01
  12  0.214  0.786  0.750-  17 2.37  16 2.51  10 2.51   2 2.85   1 2.85   6 2.92   3 2.92   4 2.92
                             5 2.92  16 3.35  10 3.35
  13  0.757  0.243  0.250-   7 2.72   8 2.72   1 2.78   2 2.78   9 2.84  15 2.84   3 2.96   4 2.96
                             5 2.96   6 2.96  15 3.01   9 3.01
  14  0.786  0.214  0.750-  17 2.37  16 2.51  10 2.51   2 2.85   1 2.85   6 2.92   3 2.92   4 2.92
                             5 2.92  16 3.35  10 3.35
  15  0.757  0.757  0.250-   7 2.72   8 2.72   1 2.78   2 2.78  11 2.84  13 2.84   3 2.96   4 2.96
                             5 2.96   6 2.96  13 3.01  11 3.01
  16  0.786  0.786  0.750-  17 2.37  14 2.51  12 2.51   2 2.85   1 2.85   6 2.92   3 2.92   4 2.92
                             5 2.92  14 3.35  12 3.35
  17  0.500  0.500  0.750-  10 2.37  12 2.37  14 2.37  16 2.37   7 2.46   8 2.46

  LATTYP: Found a simple tetragonal cell.
 ALAT       =     5.8584555020
 C/A-ratio  =     1.4168024267

  Lattice vectors:

 A1 = (   5.8584555020,   0.0000000000,   0.0000000000)
 A2 = (   0.0000000000,   5.8584555020,   0.0000000000)
 A3 = (   0.0000000000,   0.0000000000,   8.3002739718)

Analysis of symmetry for initial positions (statically):
 Subroutine PRICEL returns:
 Original cell was already a primitive cell.

 Routine SETGRP: Setting up the symmetry group for a
 simple tetragonal supercell.

 Subroutine GETGRP returns: Found 16 space group operations
 (whereof  8 operations were pure point group operations)
 out of a pool of 16 trial point group operations.

The static configuration has the point symmetry C_4v.
 The point group associated with its full space group is D_4h.

Analysis of symmetry for dynamics (positions and initial velocities):
 Subroutine PRICEL returns:
 Original cell was already a primitive cell.

 Routine SETGRP: Setting up the symmetry group for a
 simple tetragonal supercell.

 Subroutine GETGRP returns: Found 16 space group operations
 (whereof  8 operations were pure point group operations)
 out of a pool of 16 trial point group operations.

The dynamic configuration has the point symmetry C_4v.
 The point group associated with its full space group is D_4h.

 Subroutine INISYM returns: Found 16 space group operations
 (whereof  8 operations are pure point group operations),
 and found     1 'primitive' translations

                                     Primitive cell

  volume of cell :     284.8779

  direct lattice vectors                    reciprocal lattice vectors
     5.858455502  0.000000000  0.000000000     0.170693453  0.000000000  0.000000000
     0.000000000  5.858455502  0.000000000     0.000000000  0.170693453  0.000000000
     0.000000000  0.000000000  8.300273972     0.000000000  0.000000000  0.120477951

  length of vectors
     5.858455502  5.858455502  8.300273972     0.170693453  0.170693453  0.120477951

  position of ions in fractional coordinates (direct lattice)
     0.000000000  0.000000000  0.018673676
     0.000000000  0.000000000  0.481326324
     0.000000000  0.500000000  0.995507135
     0.000000000  0.500000000  0.504492865
     0.500000000  0.000000000  0.995507135
     0.500000000  0.000000000  0.504492865
     0.500000000  0.500000000  0.046382817
     0.500000000  0.500000000  0.453617183
     0.242685310  0.242685310  0.250000000
     0.213916829  0.213916829  0.750000000
     0.242685310  0.757314690  0.250000000
     0.213916829  0.786083171  0.750000000
     0.757314690  0.242685310  0.250000000
     0.786083171  0.213916829  0.750000000
     0.757314690  0.757314690  0.250000000
     0.786083171  0.786083171  0.750000000
     0.500000000  0.500000000  0.750000000

  ion indices of the primitive-cell ions
   primitive index   ion index
                 1           1
                 2           2
                 3           3
                 4           4
                 5           5
                 6           6
                 7           7
                 8           8
                 9           9
                10          10
                11          11
                12          12
                13          13
                14          14
                15          15
                16          16
                17          17

 KPOINTS: K-Spacing Value to Generate K-Mesh: 0.02

Automatic generation of k-mesh.
 Grid dimensions read from file:
 generate k-points for:    9    9    6

 Generating k-lattice:

  Cartesian coordinates                     Fractional coordinates (reciprocal lattice)
     0.018965939  0.000000000  0.000000000     0.111111111  0.000000000  0.000000000
     0.000000000  0.018965939  0.000000000     0.000000000  0.111111111  0.000000000
     0.000000000  0.000000000  0.020079658     0.000000000  0.000000000  0.166666667

  Length of vectors
     0.018965939  0.018965939  0.020079658

  Shift w.r.t. Gamma in fractional coordinates (k-lattice)
     0.000000000  0.000000000  0.000000000

 Subroutine IBZKPT returns following result:

 Found     60 irreducible k-points:

 Following reciprocal coordinates:
            Coordinates               Weight
  0.000000  0.000000  0.000000      1.000000
  0.111111  0.000000  0.000000      4.000000
  0.222222  0.000000  0.000000      4.000000
  0.333333  0.000000  0.000000      4.000000
  0.444444  0.000000  0.000000      4.000000
  0.111111  0.111111  0.000000      4.000000
  0.222222  0.111111  0.000000      8.000000
  0.333333  0.111111  0.000000      8.000000
  0.444444  0.111111  0.000000      8.000000
  0.222222  0.222222  0.000000      4.000000
  0.333333  0.222222  0.000000      8.000000
  0.444444  0.222222  0.000000      8.000000
  0.333333  0.333333  0.000000      4.000000
  0.444444  0.333333  0.000000      8.000000
  0.444444  0.444444  0.000000      4.000000
  0.000000  0.000000  0.166667      2.000000
  0.111111  0.000000  0.166667      8.000000
  0.222222  0.000000  0.166667      8.000000
  0.333333  0.000000  0.166667      8.000000
  0.444444  0.000000  0.166667      8.000000
  0.111111  0.111111  0.166667      8.000000
  0.222222  0.111111  0.166667     16.000000
  0.333333  0.111111  0.166667     16.000000
  0.444444  0.111111  0.166667     16.000000
  0.222222  0.222222  0.166667      8.000000
  0.333333  0.222222  0.166667     16.000000
  0.444444  0.222222  0.166667     16.000000
  0.333333  0.333333  0.166667      8.000000
  0.444444  0.333333  0.166667     16.000000
  0.444444  0.444444  0.166667      8.000000
  0.000000  0.000000  0.333333      2.000000
  0.111111  0.000000  0.333333      8.000000
  0.222222  0.000000  0.333333      8.000000
  0.333333  0.000000  0.333333      8.000000
  0.444444  0.000000  0.333333      8.000000
  0.111111  0.111111  0.333333      8.000000
  0.222222  0.111111  0.333333     16.000000
  0.333333  0.111111  0.333333     16.000000
  0.444444  0.111111  0.333333     16.000000
  0.222222  0.222222  0.333333      8.000000
  0.333333  0.222222  0.333333     16.000000
  0.444444  0.222222  0.333333     16.000000
  0.333333  0.333333  0.333333      8.000000
  0.444444  0.333333  0.333333     16.000000
  0.444444  0.444444  0.333333      8.000000
  0.000000  0.000000  0.500000      1.000000
  0.111111  0.000000  0.500000      4.000000
  0.222222  0.000000  0.500000      4.000000
  0.333333  0.000000  0.500000      4.000000
  0.444444  0.000000  0.500000      4.000000
  0.111111  0.111111  0.500000      4.000000
  0.222222  0.111111  0.500000      8.000000
  0.333333  0.111111  0.500000      8.000000
  0.444444  0.111111  0.500000      8.000000
  0.222222  0.222222  0.500000      4.000000
  0.333333  0.222222  0.500000      8.000000
  0.444444  0.222222  0.500000      8.000000
  0.333333  0.333333  0.500000      4.000000
  0.444444  0.333333  0.500000      8.000000
  0.444444  0.444444  0.500000      4.000000

 Following cartesian coordinates:
            Coordinates               Weight
[...]
 k-point    50 :   0.4444 0.0000 0.5000  plane waves:    7646
 k-point    51 :   0.1111 0.1111 0.5000  plane waves:    7666
 k-point    52 :   0.2222 0.1111 0.5000  plane waves:    7664
 k-point    53 :   0.3333 0.1111 0.5000  plane waves:    7644
 k-point    54 :   0.4444 0.1111 0.5000  plane waves:    7642
 k-point    55 :   0.2222 0.2222 0.5000  plane waves:    7658
 k-point    56 :   0.3333 0.2222 0.5000  plane waves:    7684
 k-point    57 :   0.4444 0.2222 0.5000  plane waves:    7672
 k-point    58 :   0.3333 0.3333 0.5000  plane waves:    7676
 k-point    59 :   0.4444 0.3333 0.5000  plane waves:    7678
 k-point    60 :   0.4444 0.4444 0.5000  plane waves:    7672

 maximum and minimum number of plane-waves per node :      7706     7640

 maximum number of plane-waves:      7706
 maximum index in each direction:
   IXMAX=   10   IYMAX=   10   IZMAX=   15
   IXMIN=  -11   IYMIN=  -11   IZMIN=  -15

 serial   3D FFT for wavefunctions
 parallel 3D FFT for charge:
    minimum data exchange during FFTs selected (reduces bandwidth)

 Broyden mixing: mesh for mixing (old mesh)
   NGX = 21   NGY = 21   NGZ = 31
  (NGX  = 72   NGY  = 72   NGZ  = 96)
  gives a total of  13671 points

 initial charge density was supplied:
 charge density of overlapping atoms calculated
 number of electron     133.0000000 magnetization
 keeping initial charge density in first step

 Maximum index for augmentation-charges          772 (set IRDMAX)

 First call to EWALD:  gamma=   0.269
 Maximum number of real-space cells   3x   3x   2
 Maximum number of reciprocal cells   3x   3x   3

--------------------------------------- Ionic step        1  -------------------------------------------

--------------------------------------- Iteration      1(   1)  ---------------------------------------

 eigenvalue-minimisations  : 15360
 total energy-change (2. order) : 0.9764712E+03  (-0.6449504E+04)
 number of electron     133.0000000 magnetization
 augmentation part      133.0000000 magnetization

 Free energy of the ion-electron system (eV)
  alpha Z        PSCENC =       353.75656847
  Ewald energy   TEWEN  =     -9823.54474122
  -Hartree energ DENC   =     -4811.22005091
  -exchange      EXHF   =         0.00000000
  -V(xc)+E(xc)   XCENC  =       330.68494136
  PAW double counting   =     12249.27850793   -12170.51614461
  entropy T*S    EENTRO =        -0.00182265
  eigenvalues    EBANDS =      -433.78082532
  atomic energy  EATOM  =     15281.81476201
  Solvation  Ediel_sol  =         0.00000000
  free energy    TOTEN  =       976.47119506 eV

  energy without entropy =      976.47301771  energy(sigma->0) =      976.47180261

[...]

 eigenvalue-minimisations  : 15424
 total energy-change (2. order) :-0.1004465E+04  (-0.9692828E+03)
 number of electron     133.0000000 magnetization
 augmentation part      133.0000000 magnetization

[...]

 Broyden mixing:
  rms(total) = 0.27076E+01    rms(broyden)= 0.27076E+01
  rms(prec ) = 0.39583E+01
  weight for this iteration     100.00

[...]

 eigenvalues of (default mixing * dielectric matrix)
  average eigenvalue GAMMA=   0.6828
  0.6828

[...]

 eigenvalue-minimisations  : 19584
 total energy-change (2. order) :-0.2584436E+00  (-0.3298280E+01)
 number of electron     132.9999797 magnetization
 augmentation part       38.5456987 magnetization

[...]

 Broyden mixing:
  rms(total) = 0.32063E-02    rms(broyden)= 0.32045E-02
  rms(prec ) = 0.36887E-02
  weight for this iteration     100.00

 eigenvalues of (default mixing * dielectric matrix)
  average eigenvalue GAMMA=   1.2397
  2.9810  2.5694  1.6712  0.2159  0.2670  0.5739  1.0153  1.0153  0.8487

[...]

--------------------------------------- Iteration      1(  15)  ---------------------------------------

 eigenvalue-minimisations  : 20672
 total energy-change (2. order) : 0.5863118E-05  (-0.3652835E-05)
 number of electron     132.9999798 magnetization
 augmentation part       37.9002375 magnetization

 Free energy of the ion-electron system (eV)
  alpha Z        PSCENC =       353.75656847
  Ewald energy   TEWEN  =     -9823.54474122
  -Hartree energ DENC   =     -4574.45148316
  -exchange      EXHF   =         0.00000000
  -V(xc)+E(xc)   XCENC  =       321.98790533
  PAW double counting   =     14843.14754158   -14743.06100337
  entropy T*S    EENTRO =        -0.00373258
  eigenvalues    EBANDS =     -1758.24645359
  atomic energy  EATOM  =     15281.81476201
  Solvation  Ediel_sol  =         0.00000000
  free energy    TOTEN  =       -98.60063652 eV

  energy without entropy =      -98.59690394  energy(sigma->0) =      -98.59939233

 average (electrostatic) potential at core
  the test charge radii are     1.0397  1.0406  1.0314
  (the norm of the test charge is              1.0000)
       1 -72.6553       2 -72.6553       3 -73.0075       4 -73.0075       5 -73.0075
       6 -73.0075       7 -72.6852       8 -72.6852       9 -71.7254      10 -72.1306
      11 -71.7254      12 -72.1306      13 -71.7254      14 -72.1306      15 -71.7254
      16 -72.1306      17 -62.7399

 E-fermi :   8.0154     XC(G=0): -10.9195     alpha+bet :-15.5516

 val. band max:        8.0153060276   @ k =   0.3333   0.2222   0.1667
 cond. band min:       8.0195074378   @ k =   0.3333   0.1111   0.5000
 fundamental gap:      0.0042014102
 Fermi energy:         8.0153889344

 k-point     1 :       0.0000    0.0000    0.0000
  band No.  band energies     occupation
      1     -48.9407      2.00000
      2     -48.9403      2.00000
      3     -48.9364      2.00000
      4     -48.9361      2.00000
      5     -48.6469      2.00000
      6     -48.6435      2.00000
      7     -48.6007      2.00000
      8     -48.6001      2.00000
      9     -25.3380      2.00000
     10     -25.3322      2.00000
     11     -25.3273      2.00000
     12     -25.3230      2.00000
     13     -25.2264      2.00000
     14     -25.2264      2.00000
     15     -25.2241      2.00000
     16     -25.2241      2.00000
     17     -25.1704      2.00000
     18     -25.1704      2.00000
     19     -25.1691      2.00000
     20     -25.1691      2.00000
     21     -25.0426      2.00000
     22     -24.9934      2.00000
     23     -24.9887      2.00000
     24     -24.9737      2.00000
     25     -24.8317      2.00000
     26     -24.8317      2.00000
     27     -24.8278      2.00000
     28     -24.8278      2.00000
     29     -24.7551      2.00000
     30     -24.7551      2.00000
     31     -24.7540      2.00000
     32     -24.7540      2.00000
     33      -7.4307      2.00000
     34      -7.3300      2.00000
     35      -7.2909      2.00000
     36      -7.2403      2.00000
     37      -7.2403      2.00000
     38      -1.8270      2.00000
     39       0.1091      2.00000
     40       1.4848      2.00000
     41       2.3782      2.00000
     42       2.3782      2.00000
     43       2.6591      2.00000
     44       3.1986      2.00000
     45       3.1986      2.00000
     46       3.5336      2.00000
     47       4.4682      2.00000
     48       4.8622      2.00000
     49       4.9803      2.00000
     50       5.2650      2.00000
     51       5.2650      2.00000
     52       5.7256      2.00000
     53       6.0761      2.00000
     54       6.1910      2.00000
     55       6.3777      2.00000
     56       6.3777      2.00000
     57       6.6732      2.00000
     58       6.6806      2.00000
     59       6.6806      2.00000
     60       6.7346      2.00000
[...]
    114      14.9570      0.00000
    115      15.5554      0.00000
    116      16.4236      0.00000
    117      16.4343      0.00000
    118      16.4446      0.00000
    119      16.9218      0.00000
    120      16.9218      0.00000
    121      17.4830      0.00000
    122      17.8319      0.00000
    123      17.9850      0.00000
    124      17.9850      0.00000
    125      18.4740      0.00000
    126      18.5706      0.00000
    127      18.5706      0.00000
    128      18.8852      0.00000

[...]

 k-point    60 :       0.4444    0.4444    0.5000
  band No.  band energies     occupation
      1     -48.9367      2.00000
      2     -48.9366      2.00000
      3     -48.9366      2.00000
      4     -48.9365      2.00000
      5     -48.6486      2.00000
      6     -48.6453      2.00000
      7     -48.6026      2.00000
      8     -48.6021      2.00000
      9     -25.3312      2.00000
     10     -25.3310      2.00000
     11     -25.3292      2.00000
     12     -25.3290      2.00000
     13     -25.1694      2.00000
     14     -25.1685      2.00000
     15     -25.1541      2.00000
     16     -25.1540      2.00000
     17     -25.1122      2.00000
     18     -25.1117      2.00000
     19     -25.1016      2.00000
     20     -25.1014      2.00000
     21     -25.0327      2.00000
     22     -24.9928      2.00000
     23     -24.9862      2.00000
     24     -24.9761      2.00000
     25     -24.8940      2.00000
     26     -24.8939      2.00000
     27     -24.8889      2.00000
     28     -24.8888      2.00000
     29     -24.8287      2.00000
     30     -24.8287      2.00000
     31     -24.8277      2.00000
     32     -24.8277      2.00000
     33      -7.4323      2.00000
     34      -7.3278      2.00000
     35      -7.2890      2.00000
     36      -7.2407      2.00000
     37      -7.2407      2.00000
     38      -0.7620      2.00000
     39       0.4315      2.00000
     40       1.1765      2.00000
     41       1.3367      2.00000
     42       1.3467      2.00000
     43       1.7850      2.00000
     44       1.8327      2.00000
     45       2.2524      2.00000
     46       5.2407      2.00000
     47       5.5021      2.00000
     48       5.5643      2.00000
     49       5.6687      2.00000
     50       5.6892      2.00000
     51       5.8219      2.00000
     52       6.1392      2.00000
     53       6.1532      2.00000
     54       6.2699      2.00000
     55       6.3838      2.00000
     56       6.8470      2.00000
     57       6.9887      2.00000
     58       7.0018      2.00000
     59       7.0726      2.00000
     60       7.1229      2.00000
[...]
    114      15.9204      0.00000
    115      15.9470      0.00000
    116      16.0079      0.00000
    117      16.1946      0.00000
    118      16.4364      0.00000
    119      16.7123      0.00000
    120      16.8008      0.00000
    121      16.9444      0.00000
    122      16.9967      0.00000
    123      17.0070      0.00000
    124      17.0757      0.00000
    125      17.1330      0.00000
    126      17.5713      0.00000
    127      17.5981      0.00000
    128      17.6481      0.00000

 soft charge-density along one line, spin component           1
         0         1         2         3         4         5         6         7         8         9
 total charge-density along one line

------------------------ aborting loop because EDIFF is reached ----------------------------------------

  FORCE on cell =-STRESS in cart. coord.  units (eV):
  Direction    XX          YY          ZZ          XY          YZ          ZX
  Alpha Z   353.75657   353.75657   353.75657
  Ewald   -3102.58969 -3102.58969 -3618.38885     0.00000    -0.00000    -0.00000
  Hartree  1709.59839  1709.59839  1155.26642    -0.00000    -0.00000    -0.00000
  E(xc)    -654.53867  -654.53867  -655.08384     0.00000    -0.00000     0.00000
  Local    -417.07574  -417.07574   678.56449    -0.00000    -0.00000     0.00000
  n-local   -91.25517  -114.46092   -71.77223    -2.70203     1.76546     3.70531
  augment   617.09197   617.09197   601.64190     0.00000     0.00000    -0.00000
  Kinetic  1587.19784  1606.32209  1556.09837     0.09219    -3.44712    -5.17389
  Fock        0.00000     0.00000     0.00000     0.00000     0.00000     0.00000
  Total       0.14474     0.14474     0.08283     0.00000     0.00000     0.00000
  in kB       0.81404     0.81404     0.46583     0.00000     0.00000     0.00000

 VOLUME and BASIS-vectors are now :
  energy-cutoff  :      520.00
  volume of cell :      284.88
      direct lattice vectors                 reciprocal lattice vectors
     5.858455502  0.000000000  0.000000000     0.170693453  0.000000000  0.000000000
     0.000000000  5.858455502  0.000000000     0.000000000  0.170693453  0.000000000
     0.000000000  0.000000000  8.300273972     0.000000000  0.000000000  0.120477951

  length of vectors
     5.858455502  5.858455502  8.300273972     0.170693453  0.170693453  0.120477951

 FORCES acting on ions
    electron-ion (+dipol)            ewald-force                    non-local-force                 convergence-correction
   -.111E-13 0.409E-12 -.454E+02   0.293E-13 -.697E-14 0.445E+02   0.000E+00 0.000E+00 0.851E+00   -.383E-13 0.353E-13 -.432E-02
   -.116E-13 -.458E-12 0.454E+02   0.115E-13 -.533E-14 -.445E+02   0.000E+00 -.260E-17 -.851E+00   -.675E-13 -.465E-13 0.432E-02
   -.674E-14 0.124E-11 -.443E+02   0.672E-14 0.902E-14 0.454E+02   0.000E+00 0.000E+00 -.112E+01   -.405E-13 -.574E-13 0.416E-02
   -.401E-13 0.168E-13 0.443E+02   0.628E-14 0.127E-13 -.454E+02   0.000E+00 0.000E+00 0.112E+01   -.107E-12 0.127E-12 -.416E-02
   0.708E-12 0.286E-12 -.443E+02   -.160E-13 -.805E-14 0.454E+02   0.217E-18 0.867E-18 -.112E+01   0.413E-13 0.181E-13 0.416E-02
   0.730E-12 -.303E-12 0.443E+02   -.230E-14 0.172E-15 -.454E+02   0.000E+00 0.867E-18 0.112E+01   0.128E-12 -.525E-13 -.416E-02
   0.733E-12 0.273E-11 -.219E+03   -.182E-13 0.668E-14 0.220E+03   0.000E+00 -.520E-17 -.636E+00   0.556E-13 -.305E-13 -.107E-01
   0.742E-12 0.239E-11 0.219E+03   0.525E-15 -.537E-14 -.220E+03   0.000E+00 0.347E-17 0.636E+00   0.135E-12 0.105E-12 0.107E-01
   0.943E+01 0.943E+01 -.306E-07   -.937E+01 -.937E+01 -.255E-14   -.597E-01 -.597E-01 -.867E-18   -.895E-03 -.895E-03 -.141E-13
   0.308E+02 0.308E+02 0.156E-06   -.327E+02 -.327E+02 -.790E-14   0.185E+01 0.185E+01 -.867E-18   0.165E-03 0.165E-03 0.143E-13
   0.943E+01 -.943E+01 0.711E-13   -.937E+01 0.937E+01 0.263E-13   -.597E-01 0.597E-01 -.434E-18   -.895E-03 0.895E-03 -.623E-14
   0.308E+02 -.308E+02 0.182E-13   -.327E+02 0.327E+02 0.103E-13   0.185E+01 -.185E+01 0.651E-18   0.165E-03 -.165E-03 0.317E-14
   -.943E+01 0.943E+01 -.147E-11   0.937E+01 -.937E+01 -.269E-14   0.597E-01 -.597E-01 0.000E+00   0.895E-03 -.895E-03 -.107E-13
   -.308E+02 0.308E+02 0.255E-13   0.327E+02 -.327E+02 0.309E-14   -.185E+01 0.185E+01 0.217E-18   -.165E-03 0.165E-03 0.806E-14
   -.943E+01 -.943E+01 0.306E-07   0.937E+01 0.937E+01 -.350E-14   0.597E-01 0.597E-01 -.434E-18   0.895E-03 0.895E-03 -.405E-14
   -.308E+02 -.308E+02 -.156E-06   0.327E+02 0.327E+02 0.212E-13   -.185E+01 -.185E+01 0.434E-18   -.165E-03 -.165E-03 -.308E-14
   0.115E-11 0.374E-11 0.267E-11   0.388E-13 0.970E-14 0.775E-14   0.331E-23 0.000E+00 -.662E-23   0.291E-13 -.298E-13 -.129E-12
   0.450E-11 0.109E-10 0.159E-10   -.251E-13 0.259E-14 -.487E-14   0.331E-23 0.222E-15 -.112E-15   0.128E-12 0.677E-13 -.340E-12

 POSITION                                       TOTAL-FORCE (eV/Angst)
      0.00000      0.00000      0.15500         0.000000     -0.000000      0.010478
      0.00000      0.00000      3.99514         0.000000      0.000000     -0.010478
      0.00000      2.92923      8.26298         0.000000     -0.000000     -0.004829
      0.00000      2.92923      4.18743         0.000000      0.000000      0.004829
      2.92923      0.00000      8.26298         0.000000      0.000000     -0.004829
      2.92923      0.00000      4.18743         0.000000     -0.000000      0.004829
      2.92923      2.92923      0.38499         0.000000     -0.000000     -0.005031
      2.92923      2.92923      3.76515         0.000000     -0.000000      0.005031
      1.42176      1.42176      2.07507        -0.002818     -0.002818      0.000000
      1.25322      1.25322      6.22521        -0.010716     -0.010716      0.000000
      1.42176      4.43669      2.07507        -0.002818      0.002818     -0.000000
      1.25322      4.60523      6.22521        -0.010716      0.010716     -0.000000
      4.43669      1.42176      2.07507         0.002818     -0.002818      0.000000
      4.60523      1.25322      6.22521         0.010716     -0.010716     -0.000000
      4.43669      4.43669      2.07507         0.002818      0.002818      0.000000
      4.60523      4.60523      6.22521         0.010716      0.010716      0.000000
      2.92923      2.92923      6.22521         0.000000      0.000000      0.000000
    total drift:                                0.000000      0.000000      0.000000

  FREE ENERGIE OF THE ION-ELECTRON SYSTEM (eV)
  free  energy   TOTEN  =       -98.60063652 eV

  energy  without entropy=      -98.59690394  energy(sigma->0) =      -98.59939233

 writing wavefunctions