 vasp.6.5.0 16Dec24 (build Apr 17 2025 17:55:45) complex

 executed on             LinuxIFC date 2025.07.14  12:49:53

 INCAR:
   ISTART = 0
   ICHARG = 2
   PREC = N
   LREAL = .FALSE.
   ENCUT = 520
   ALGO = N
   NELM = 500
   EDIFF = 1E-05
   IBRION = -1
   ISIF = 3
   NSW = 0
   EDIFFG = -0.01
   ISMEAR = 1
   SIGMA = 0.1
   LVHAR = .TRUE.
   LVTOT = .TRUE.

 POTCAR:    PAW_PBE Ti_sv 26Sep2005
 POTCAR:    PAW_PBE Al 04Jan2001
|           W    W    AA    RRRRR   N    N  II  N    N   GGGG   !!!           |
|           W    W   A  A   R    R  NN   N  II  NN   N  G    G  !!!           |
|           W    W  A    A  R    R  N N  N  II  N N  N  G       !!!           |
|           W WW W  AAAAAA  RRRRR   N  N N  II  N  N N  G  GGG   !            |
|           WW  WW  A    A  R   R   N   NN  II  N   NN  G    G                |
|           W    W  A    A  R    R  N    N  II  N    N   GGGG   !!!           |
|     For optimal performance we recommend to set                             |
|       NCORE = 2 up to number-of-cores-per-socket                            |
|     This setting can greatly improve the performance of VASP for DFT.       |
|     The default, NCORE=1 might be grossly inefficient on modern             |
|     multi-core architectures or massively parallel machines. Do your        |
|     Unfortunately you need to use the default for GW and RPA                |
|     calculations (for HF NCORE is supported but not extensively tested      |
|     yet).                                                                   |

   TITEL  = PAW_PBE Ti_sv 26Sep2005
   POMASS =   47.880; ZVAL   =   12.000    mass and valenz
   ENMAX  =  274.610; ENMIN  =  205.957 eV

   TITEL  = PAW_PBE Al 04Jan2001
   POMASS =   26.981; ZVAL   =    3.000    mass and valenz
   ENMAX  =  240.300; ENMIN  =  180.225 eV

  PAW_PBE Ti_sv 26Sep2005               :
  PAW_PBE Al 04Jan2001                  :

 POSCAR: 0000065828-primitive-cell\(1\1\1)
  positions in direct lattice

 exchange-correlation table for PE
   RHO(1)=    0.500       N(1)  =     2000
   RHO(2)=  100.500       N(2)  =     4000

 ion  position               nearest neighbor table
   1  0.209  0.418  0.371-   2 2.82   2 2.82   7 2.85   6 2.85   5 2.85   6 2.85   5 2.85   5 2.85
                             6 2.85
   2  0.806  0.612  0.455-   1 2.82   1 2.82   3 2.82   3 2.82   5 2.85   7 2.85   6 2.85   6 2.85
                             6 2.85   7 2.85   7 2.85   8 2.85
   3  0.403  0.806  0.540-   4 2.82   4 2.82   2 2.82   2 2.82   8 2.85   8 2.85   7 2.85   8 2.85
                             7 2.85   7 2.85   6 2.85
   4  0.000  0.000  0.624-   3 2.82   3 2.82   8 2.85   8 2.85   8 2.85   7 2.85
   5  0.911  0.821  0.329-   6 2.82   6 2.82   2 2.85   1 2.85   1 2.85   1 2.85
   6  0.508  0.015  0.413-   5 2.82   7 2.82   7 2.82   5 2.82   1 2.85   2 2.85   1 2.85   2 2.85
                             2 2.85   1 2.85   3 2.85
   7  0.105  0.209  0.498-   6 2.82   6 2.82   8 2.82   8 2.82   1 2.85   2 2.85   2 2.85   2 2.85
                             3 2.85   3 2.85   3 2.85   4 2.85
   8  0.702  0.403  0.582-   7 2.82   7 2.82   3 2.85   4 2.85   3 2.85   4 2.85   4 2.85   3 2.85
                             2 2.85

  LATTYP: Found a base centered orthorhombic cell.
 ALAT       =     3.9934999943
 B/A-ratio  =     2.2705271971
 C/A-ratio  =     5.3272316644

  Lattice vectors:

 A1 = (   1.9967256301,  -4.5336751742,   0.0000000000)
 A2 = (   1.9967743642,   4.5336751742,   0.0000000000)
 A3 = (   0.0000000000,   0.0000000000,  21.2742996216)

Analysis of symmetry for initial positions (statically):
 Subroutine PRICEL returns:
 Original cell was already a primitive cell.

 Routine SETGRP: Setting up the symmetry group for a
 base centered orthorhombic supercell.

 Subroutine GETGRP returns: Found  1 space group operations
 (whereof  1 operations were pure point group operations)
 out of a pool of  8 trial point group operations.

The static configuration has the point symmetry C_1 .

Analysis of symmetry for dynamics (positions and initial velocities):
 Subroutine PRICEL returns:
 Original cell was already a primitive cell.

 Routine SETGRP: Setting up the symmetry group for a
 base centered orthorhombic supercell.

 Subroutine GETGRP returns: Found  1 space group operations
 (whereof  1 operations were pure point group operations)
 out of a pool of  8 trial point group operations.

The dynamic configuration has the point symmetry C_1 .

 Subroutine INISYM returns: Found  1 space group operations
 (whereof  1 operations are pure point group operations),
 and found     1 'primitive' translations

                                     Primitive cell

  volume of cell :     385.1761

  direct lattice vectors                    reciprocal lattice vectors
     3.993499994  0.000000000  0.000000000     0.250406912  0.110284456  0.000000000
    -1.996725630  4.533675174  0.000000000     0.000000000  0.220571603  0.000000000
     0.000000000  0.000000000 21.274299622     0.000000000  0.000000000  0.047005073

  length of vectors
     3.993499994  4.953899860 21.274299622     0.273617036  0.220571603  0.047005073

  position of ions in fractional coordinates (direct lattice)
     0.209040001  0.418089986  0.371170014
     0.806029975  0.612060010  0.455430001
     0.403010011  0.806029975  0.539699972
     0.000000000  0.000000000  0.623960018
     0.910549998  0.821099997  0.329039991
     0.507539988  0.015070000  0.413300008
     0.104520001  0.209040001  0.497559994
     0.701510012  0.403010011  0.581830025

  ion indices of the primitive-cell ions
   primitive index   ion index
                 1           1
                 2           2
                 3           3
                 4           4
                 5           5
                 6           6
                 7           7
                 8           8

 KPOINTS: K-Spacing Value to Generate K-Mesh: 0.04

Automatic generation of k-mesh.
 Grid dimensions read from file:
 generate k-points for:    7    6    1

 Generating k-lattice:

  Cartesian coordinates                     Fractional coordinates (reciprocal lattice)
     0.035772416  0.015754922  0.000000000     0.142857143  0.000000000  0.000000000
     0.000000000  0.036761934  0.000000000     0.000000000  0.166666667  0.000000000
     0.000000000  0.000000000  0.047005073     0.000000000  0.000000000  1.000000000

  Length of vectors
     0.039088148  0.036761934  0.047005073

  Shift w.r.t. Gamma in fractional coordinates (k-lattice)
     0.000000000  0.000000000  0.000000000

 WARNING: IBZKPT: internal override: KBLOWUP is changed to .FALSE.
      ... skipping the blow-up phase ...

 Subroutine IBZKPT returns following result:

 Found     22 irreducible k-points:

 Following reciprocal coordinates:
            Coordinates               Weight
  0.000000  0.000000  0.000000      1.000000
  0.142857  0.000000  0.000000      2.000000
  0.285714  0.000000  0.000000      2.000000
  0.428571  0.000000  0.000000      2.000000
  0.000000  0.166667  0.000000      2.000000
  0.142857  0.166667  0.000000      2.000000
  0.285714  0.166667  0.000000      2.000000
  0.428571  0.166667  0.000000      2.000000
 -0.428571  0.166667  0.000000      2.000000
 -0.285714  0.166667  0.000000      2.000000
 -0.142857  0.166667  0.000000      2.000000
  0.000000  0.333333  0.000000      2.000000
  0.142857  0.333333  0.000000      2.000000
  0.285714  0.333333  0.000000      2.000000
  0.428571  0.333333  0.000000      2.000000
 -0.428571  0.333333  0.000000      2.000000
 -0.285714  0.333333  0.000000      2.000000
 -0.142857  0.333333  0.000000      2.000000
  0.000000  0.500000  0.000000      1.000000
  0.142857  0.500000  0.000000      2.000000
  0.285714  0.500000  0.000000      2.000000
  0.428571  0.500000  0.000000      2.000000

 Following cartesian coordinates:
            Coordinates               Weight
  0.000000  0.000000  0.000000      1.000000
  0.035772  0.015755  0.000000      2.000000
  0.071545  0.031510  0.000000      2.000000
  0.107317  0.047265  0.000000      2.000000
  0.000000  0.036762  0.000000      2.000000
  0.035772  0.052517  0.000000      2.000000
  0.071545  0.068272  0.000000      2.000000
  0.107317  0.084027  0.000000      2.000000
 -0.107317 -0.010503  0.000000      2.000000
 -0.071545  0.005252  0.000000      2.000000
 -0.035772  0.021007  0.000000      2.000000
  0.000000  0.073524  0.000000      2.000000
  0.035772  0.089279  0.000000      2.000000
  0.071545  0.105034  0.000000      2.000000
  0.107317  0.120789  0.000000      2.000000
 -0.107317  0.026259  0.000000      2.000000
 -0.071545  0.042014  0.000000      2.000000
 -0.035772  0.057769  0.000000      2.000000
  0.000000  0.110286  0.000000      1.000000
  0.035772  0.126041  0.000000      2.000000
  0.071545  0.141796  0.000000      2.000000
  0.107317  0.157551  0.000000      2.000000

 SYSTEM =  unknown system
 POSCAR =  0000065828-primitive-cell\(1\1\1)

 Startparameter for this run:
   NWRITE =      2    write-flag & timer
   PREC   = n         normal or accurate (medium, high low for compatibility)
   ISTART =      0    job   : 0-new  1-cont  2-samecut
   ICHARG =      2    charge: 1-file 2-atom 10-const
   ISPIN  =      1    spin polarized calculation?
   LNONCOLLINEAR =      F non collinear calculations
   LSORBIT =      F    spin-orbit coupling
   INIWAV =      1    electr: 0-lowe 1-rand  2-diag
   LASPH  =      F    aspherical Exc in radial PAW
 Electronic Relaxation 1
   ENCUT  =  520.0 eV  38.22 Ry    6.18 a.u.   7.43  9.21 39.56*2*pi/ulx,y,z
   ENINI  =  520.0     initial cutoff
   ENAUG  =  482.8 eV  augmentation charge cutoff
   NELM   =    500;   NELMIN=  2; NELMDL= -5     # of ELM steps
   EDIFF  = 0.1E-04   stopping-criterion for ELM
   LREAL  =      F    real-space projection
   NLSPLINE    = F    spline interpolate recip. space projectors
   LCOMPAT=      F    compatible to vasp.4.4
   GGA_COMPAT  = T    GGA compatible to vasp.4.4-vasp.4.6
   LMAXPAW     = -100 max onsite density
   LMAXMIX     =    2 max onsite mixed and CHGCAR
   VOSKOWN=      0    Vosko Wilk Nusair interpolation
   ROPT   =    0.00000   0.00000
 Ionic relaxation
   EDIFFG = -.1E-01   stopping-criterion for IOM
   NSW    =      0    number of steps for IOM
   NBLOCK =      1;   KBLOCK =      1    inner block; outer block
   IBRION =     -1    ionic relax: 0-MD 1-quasi-New 2-CG
   NFREE  =      0    steps in history (QN), initial steepest desc. (CG)
   ISIF   =      3    stress and relaxation
   IWAVPR =     10    prediction:  0-non 1-charg 2-wave 3-comb
   ISYM   =      2    0-nonsym 1-usesym 2-fastsym
   LCORR  =      T    Harris-Foulkes like correction to forces

   POTIM  = 0.5000    time-step for ionic-motion
   TEIN   =    0.0    initial temperature
   TEBEG  =    0.0;   TEEND  =   0.0 temperature during run
   SMASS  =  -3.00    Nose mass-parameter (am)
   estimated Nose-frequenzy (Omega)   =  0.10E-29 period in steps = 0.13E+47 mass=  -0.364E-27a.u.
   SCALEE = 1.0000    scale energy and forces
   NPACO  =    256;   APACO  = 10.0  distance and # of slots for P.C.
   PSTRESS=    0.0 pullay stress

  Mass of Ions in am
   POMASS =  47.88 26.98
[...]
   0.00000000  0.11028580  0.00000000       0.024
   0.03577242  0.12604072  0.00000000       0.048
   0.07154483  0.14179565  0.00000000       0.048
   0.10731725  0.15755057  0.00000000       0.048

 k-points in reciprocal lattice and weights: K-Spacing Value to Generate K-Mesh: 0.04
   0.00000000  0.00000000  0.00000000       0.024
   0.14285714  0.00000000  0.00000000       0.048
   0.28571429  0.00000000  0.00000000       0.048
   0.42857143  0.00000000  0.00000000       0.048
   0.00000000  0.16666667  0.00000000       0.048
   0.14285714  0.16666667  0.00000000       0.048
   0.28571429  0.16666667  0.00000000       0.048
   0.42857143  0.16666667  0.00000000       0.048
  -0.42857143  0.16666667  0.00000000       0.048
  -0.28571429  0.16666667  0.00000000       0.048
  -0.14285714  0.16666667  0.00000000       0.048
   0.00000000  0.33333333  0.00000000       0.048
   0.14285714  0.33333333  0.00000000       0.048
   0.28571429  0.33333333  0.00000000       0.048
   0.42857143  0.33333333  0.00000000       0.048
  -0.42857143  0.33333333  0.00000000       0.048
  -0.28571429  0.33333333  0.00000000       0.048
  -0.14285714  0.33333333  0.00000000       0.048
   0.00000000  0.50000000  0.00000000       0.024
   0.14285714  0.50000000  0.00000000       0.048
   0.28571429  0.50000000  0.00000000       0.048
   0.42857143  0.50000000  0.00000000       0.048

 position of ions in fractional coordinates (direct lattice)
   0.20904000  0.41808999  0.37117001
   0.80602998  0.61206001  0.45543000
   0.40301001  0.80602998  0.53969997
   0.00000000  0.00000000  0.62396002
   0.91055000  0.82110000  0.32903999
   0.50753999  0.01507000  0.41330001
   0.10452000  0.20904000  0.49755999
   0.70151001  0.40301001  0.58183003

 position of ions in cartesian coordinates  (Angst):
  -0.00000975  1.89548419  7.89638209
   1.99676479  2.77488127  9.68895430
  -0.00000023  3.65427809 11.48173891
   0.00000000  0.00000000 13.27431237
   1.99677000  3.72260067  7.00009536
   1.99677028  0.06832248  8.79266820
   0.00000510  0.94771946 10.58524039
   1.99677981  1.82711648 12.37802628

 k-point     1 :   0.0000 0.0000 0.0000  plane waves:   10401
 k-point     2 :   0.1429 0.0000 0.0000  plane waves:   10379
 k-point     3 :   0.2857 0.0000 0.0000  plane waves:   10384
 k-point     4 :   0.4286 0.0000 0.0000  plane waves:   10327
 k-point     5 :   0.0000 0.1667 0.0000  plane waves:   10387
 k-point     6 :   0.1429 0.1667 0.0000  plane waves:   10381
 k-point     7 :   0.2857 0.1667 0.0000  plane waves:   10383
 k-point     8 :   0.4286 0.1667 0.0000  plane waves:   10336
 k-point     9 :  -0.4286 0.1667 0.0000  plane waves:   10357
 k-point    10 :  -0.2857 0.1667 0.0000  plane waves:   10367
 k-point    11 :  -0.1429 0.1667 0.0000  plane waves:   10371
 k-point    12 :   0.0000 0.3333 0.0000  plane waves:   10407
 k-point    13 :   0.1429 0.3333 0.0000  plane waves:   10402
 k-point    14 :   0.2857 0.3333 0.0000  plane waves:   10363
 k-point    15 :   0.4286 0.3333 0.0000  plane waves:   10307
 k-point    16 :  -0.4286 0.3333 0.0000  plane waves:   10370
 k-point    17 :  -0.2857 0.3333 0.0000  plane waves:   10382
 k-point    18 :  -0.1429 0.3333 0.0000  plane waves:   10381
 k-point    19 :   0.0000 0.5000 0.0000  plane waves:   10416
 k-point    20 :   0.1429 0.5000 0.0000  plane waves:   10402
 k-point    21 :   0.2857 0.5000 0.0000  plane waves:   10366
 k-point    22 :   0.4286 0.5000 0.0000  plane waves:   10344

 maximum and minimum number of plane-waves per node :     10416    10307

 maximum number of plane-waves:     10416
 maximum index in each direction:
   IXMAX=    7   IYMAX=    9   IZMAX=   39
   IXMIN=   -7   IYMIN=   -9   IZMIN=  -39

 serial   3D FFT for wavefunctions
 parallel 3D FFT for charge:
    minimum data exchange during FFTs selected (reduces bandwidth)

 Broyden mixing: mesh for mixing (old mesh)
   NGX = 15   NGY = 19   NGZ = 79
  (NGX  = 48   NGY  = 56   NGZ  =240)
  gives a total of  22515 points

 initial charge density was supplied:
 charge density of overlapping atoms calculated
 number of electron      60.0000000 magnetization
 keeping initial charge density in first step

 Maximum index for augmentation-charges          429 (set IRDMAX)

 First call to EWALD:  gamma=   0.244
 Maximum number of real-space cells   5x   4x   1
 Maximum number of reciprocal cells   2x   2x   7

--------------------------------------- Ionic step        1  -------------------------------------------

--------------------------------------- Iteration      1(   1)  ---------------------------------------

 eigenvalue-minimisations  :  2816
 total energy-change (2. order) : 0.2062228E+03  (-0.3401619E+04)
 number of electron      60.0000000 magnetization
 augmentation part       60.0000000 magnetization

 Free energy of the ion-electron system (eV)
  alpha Z        PSCENC =        50.92604651
  Ewald energy   TEWEN  =     10004.50904231
  -Hartree energ DENC   =    -15702.44817740
  -exchange      EXHF   =         0.00000000
  -V(xc)+E(xc)   XCENC  =       140.24336640
  PAW double counting   =      5323.06139147    -5116.90369196
  entropy T*S    EENTRO =        -0.00067739
  eigenvalues    EBANDS =     -1059.65829304
  atomic energy  EATOM  =      6566.49377757
  Solvation  Ediel_sol  =         0.00000000
  free energy    TOTEN  =       206.22278445 eV

  energy without entropy =      206.22346184  energy(sigma->0) =      206.22301025

[...]

 eigenvalue-minimisations  :  3072
 total energy-change (2. order) :-0.2367527E+03  (-0.2366057E+03)
 number of electron      60.0000000 magnetization
 augmentation part       60.0000000 magnetization

[...]

 Broyden mixing:
  rms(total) = 0.19168E+01    rms(broyden)= 0.19168E+01
  rms(prec ) = 0.22178E+01
  weight for this iteration     100.00

[...]

 eigenvalues of (default mixing * dielectric matrix)
  average eigenvalue GAMMA=   0.2650
  0.2650

[...]

 eigenvalue-minimisations  :  5312
 total energy-change (2. order) : 0.2639530E-02  (-0.3874243E-02)
 number of electron      59.9999993 magnetization
 augmentation part       14.7339799 magnetization

[...]

 Broyden mixing:
  rms(total) = 0.29980E-04    rms(broyden)= 0.29975E-04
  rms(prec ) = 0.38488E-04
  weight for this iteration     100.00

 eigenvalues of (default mixing * dielectric matrix)
  average eigenvalue GAMMA=   1.8425
  8.8853  5.7816  3.6798  2.9357  2.4200  2.0726  2.0726  0.1515  0.2293  0.2293
  1.4937  0.3628  0.5474  1.2693  1.1440  1.1440  0.6994  0.8349  0.8349  0.9792
  0.9254

[...]

--------------------------------------- Iteration      1(  27)  ---------------------------------------

 eigenvalue-minimisations  :  4160
 total energy-change (2. order) :-0.3003667E-05  (-0.1910468E-07)
 number of electron      59.9999993 magnetization
 augmentation part       14.7328553 magnetization

 Free energy of the ion-electron system (eV)
  alpha Z        PSCENC =        50.92604651
  Ewald energy   TEWEN  =     10004.50904231
  -Hartree energ DENC   =    -15733.70649801
  -exchange      EXHF   =         0.00000000
  -V(xc)+E(xc)   XCENC  =       136.90371820
  PAW double counting   =      6293.27565142    -6073.62741693
  entropy T*S    EENTRO =        -0.00385543
  eigenvalues    EBANDS =     -1289.52495346
  atomic energy  EATOM  =      6566.49377757
  Solvation  Ediel_sol  =         0.00000000
  free energy    TOTEN  =       -44.75448782 eV

  energy without entropy =      -44.75063239  energy(sigma->0) =      -44.75320268

 average (electrostatic) potential at core
  the test charge radii are     1.0397  1.0406
  (the norm of the test charge is              1.0000)
       1 -80.5159       2 -80.1777       3 -80.1177       4 -80.8194       5 -79.5879
       6 -79.2461       7 -79.2105       8 -79.2227

 E-fermi :   0.5019     XC(G=0):  -4.7928     alpha+bet : -5.4663

 val. band max:        0.4972981924   @ k =   0.4286   0.1667   0.0000
 cond. band min:       0.5046800279   @ k =   0.0000   0.0000   0.0000
 fundamental gap:      0.0073818355
 Fermi energy:         0.5019081099

 k-point     1 :       0.0000    0.0000    0.0000
  band No.  band energies     occupation
      1     -56.7734      2.00000
      2     -56.4600      2.00000
      3     -56.1377      2.00000
      4     -56.0537      2.00000
      5     -33.2002      2.00000
      6     -33.0160      2.00000
      7     -32.9197      2.00000
      8     -32.8216      2.00000
      9     -32.7090      2.00000
     10     -32.6903      2.00000
     11     -32.5315      2.00000
     12     -32.4329      2.00000
     13     -32.4054      2.00000
     14     -32.3843      2.00000
     15     -32.2049      2.00000
     16     -32.1847      2.00000
     17      -7.9478      2.00000
     18      -6.3717      2.00000
     19      -4.3537      2.00000
     20      -2.2339      2.00000
     21      -1.7877      2.00000
     22      -1.5191      2.00000
     23      -1.3436      2.00000
     24      -1.1382      2.00000
     25      -0.8284      2.00000
     26      -0.5762      2.00000
     27      -0.3299      2.00000
     28      -0.0950      2.00000
     29       0.3842      2.07017
     30       0.5047      0.95310
     31       0.5187      0.72077
     32       0.7683     -0.00108
     33       1.2558     -0.00000
     34       1.2797     -0.00000
     35       1.6946     -0.00000
     36       1.8872     -0.00000
     37       2.1703     -0.00000
     38       2.2624     -0.00000
     39       2.4227     -0.00000
     40       2.6415      0.00000
     41       3.2326      0.00000
     42       3.4331      0.00000
     43       3.5100      0.00000
     44       3.5254      0.00000
     45       3.7146      0.00000
     46       3.8638      0.00000
     47       4.0502      0.00000
     48       4.3002      0.00000
     49       4.8163      0.00000
     50       4.8924      0.00000
     51       5.1118      0.00000
     52       5.1610      0.00000
     53       5.3513      0.00000
     54       5.6592      0.00000
     55       5.8469      0.00000
     56       5.8698      0.00000
     57       6.4965      0.00000
     58       6.7860      0.00000
     59       7.3663      0.00000
     60       7.3943      0.00000
     61       7.5999      0.00000
     62       7.7591      0.00000
     63       8.2384      0.00000
     64       8.4752      0.00000

[...]

 k-point    22 :       0.4286    0.5000    0.0000
  band No.  band energies     occupation
      1     -56.7719      2.00000
      2     -56.4572      2.00000
      3     -56.1289      2.00000
      4     -56.0647      2.00000
      5     -33.2016      2.00000
      6     -33.0209      2.00000
      7     -32.9388      2.00000
      8     -32.8330      2.00000
      9     -32.7139      2.00000
     10     -32.7106      2.00000
     11     -32.5276      2.00000
     12     -32.4432      2.00000
     13     -32.4210      2.00000
     14     -32.3994      2.00000
     15     -32.1739      2.00000
     16     -32.1605      2.00000
     17      -5.8307      2.00000
     18      -4.8403      2.00000
     19      -4.6221      2.00000
     20      -3.7971      2.00000
     21      -2.6555      2.00000
     22      -1.8321      2.00000
     23      -1.5061      2.00000
     24      -1.0756      2.00000
     25      -0.9838      2.00000
     26      -0.7543      2.00000
     27      -0.3121      2.00000
     28      -0.0936      2.00000
     29       0.2574      2.00295
     30       0.4494      1.76663
     31       0.5438      0.35516
     32       0.6442     -0.06181
     33       0.8644     -0.00000
     34       1.1296     -0.00000
     35       1.2712     -0.00000
     36       1.4996     -0.00000
     37       1.7610     -0.00000
     38       1.9626     -0.00000
     39       2.0526     -0.00000
     40       2.2557     -0.00000
     41       2.3723     -0.00000
     42       2.4588     -0.00000
     43       2.8487      0.00000
     44       2.9499      0.00000
     45       3.1744      0.00000
     46       3.7980      0.00000
     47       4.4046      0.00000
     48       4.5580      0.00000
     49       4.7669      0.00000
     50       5.2321      0.00000
     51       5.4194      0.00000
     52       5.6066      0.00000
     53       6.1413      0.00000
     54       6.2864      0.00000
     55       6.5407      0.00000
     56       6.7997      0.00000
     57       6.8410      0.00000
     58       7.2214      0.00000
     59       7.4800      0.00000
     60       7.6059      0.00000
     61       7.7794      0.00000
     62       8.1748      0.00000
     63       8.5515      0.00000
     64       8.6302      0.00000

 soft charge-density along one line, spin component           1
         0         1         2         3         4         5         6         7         8         9
 total charge-density along one line

------------------------ aborting loop because EDIFF is reached ----------------------------------------

  FORCE on cell =-STRESS in cart. coord.  units (eV):
  Direction    XX          YY          ZZ          XY          YZ          ZX
  Alpha Z    50.92605    50.92605    50.92605
  Ewald   13003.24274 12402.37051-15401.10732    -0.00594   252.33278    -0.00642
  Hartree 14573.03780 14035.11434-12874.44141    -0.05302   216.88769     0.05371
  E(xc)    -285.81123  -286.36284  -286.47028    -0.00100     0.26548     0.00126
  Local  -28294.24782-27145.54788 27570.53597     0.10647  -475.58904    -0.16886
  n-local   -65.54915   -48.31051   -60.83928     0.03251    -9.02152    -0.02284
  augment   246.87470   240.57059   242.41345    -0.02017     3.74362     0.03944
  Kinetic   765.39837   747.16642   756.77025    -0.11565    11.26907     0.07219
  Fock        0.00000     0.00000     0.00000     0.00000     0.00000     0.00000
  Total      -6.12854    -4.07333    -2.21257    -0.05680    -0.11192    -0.03152
  in kB     -25.49226   -16.94342    -9.20339    -0.23627    -0.46554    -0.13112

 VOLUME and BASIS-vectors are now :
  energy-cutoff  :      520.00
  volume of cell :      385.18
      direct lattice vectors                 reciprocal lattice vectors
     3.993499994  0.000000000  0.000000000     0.250406912  0.110284456  0.000000000
    -1.996725630  4.533675174  0.000000000     0.000000000  0.220571603  0.000000000
     0.000000000  0.000000000 21.274299622     0.000000000  0.000000000  0.047005073

  length of vectors
     3.993499994  4.953899860 21.274299622     0.273617036  0.220571603  0.047005073

 FORCES acting on ions
    electron-ion (+dipol)            ewald-force                    non-local-force                 convergence-correction
   -.245E-02 0.682E+02 0.161E+04   0.449E-02 -.675E+02 -.161E+04   0.154E-02 -.705E+00 -.309E+01   0.174E-06 -.791E-04 -.157E-03
   0.491E-02 0.823E+01 0.470E+03   -.491E-02 -.859E+01 -.471E+03   -.550E-03 0.379E+00 0.937E+00   0.277E-05 0.331E-05 0.160E-03
   -.164E-01 0.285E+01 -.717E+03   0.622E-02 -.219E+01 0.718E+03   0.827E-02 -.579E+00 -.239E+00   -.719E-06 0.722E-04 0.328E-03
   0.738E-02 -.577E+02 -.177E+04   -.237E-02 0.569E+02 0.177E+04   -.117E-01 0.890E+00 0.666E+01   -.340E-05 -.938E-06 -.407E-04
   -.365E-03 -.169E+02 0.491E+03   -.645E-03 0.164E+02 -.487E+03   0.305E-02 0.460E+00 -.265E+01   0.314E-06 0.761E-05 -.309E-04
   -.917E-03 -.103E+02 0.277E+03   -.133E-02 0.102E+02 -.276E+03   0.455E-03 0.128E+00 -.117E+01   -.119E-07 0.674E-05 -.610E-05
   0.497E-02 -.511E+00 -.292E+02   0.318E-04 0.537E+00 0.294E+02   -.141E-02 -.124E+00 -.582E-01   -.639E-06 -.114E-04 0.628E-04
   0.754E-02 0.597E+01 -.332E+03   -.148E-02 -.589E+01 0.332E+03   -.477E-02 -.262E+00 0.962E+00   0.452E-06 -.254E-05 0.496E-04
   0.467E-02 -.185E+00 -.134E+01   0.997E-14 -.266E-13 0.000E+00   -.514E-02 0.188E+00 0.134E+01   -.106E-05 -.409E-05 0.365E-03

 POSITION                                       TOTAL-FORCE (eV/Angst)
     -0.00001      1.89548      7.89638         0.003642      0.038141     -0.146231
      1.99676      2.77488      9.68895        -0.000493      0.016181     -0.388806
     -0.00000      3.65428     11.48174        -0.001857      0.076157      0.587805
      0.00000      0.00000     13.27431        -0.006658      0.100416     -0.992185
      1.99677      3.72260      7.00010         0.002099     -0.036132      0.531921
      1.99677      0.06832      8.79267        -0.001739      0.080644     -0.217293
      0.00001      0.94772     10.58524         0.003652     -0.098603      0.210521
      1.99678      1.82712     12.37803         0.001352     -0.176805      0.414269
    total drift:                               -0.000464      0.002525     -0.000051

  FREE ENERGIE OF THE ION-ELECTRON SYSTEM (eV)
  free  energy   TOTEN  =       -44.75448782 eV

  energy  without entropy=      -44.75063239  energy(sigma->0) =      -44.75320268

 writing wavefunctions