 vasp.6.5.0 16Dec24 (build Apr 17 2025 17:55:45) complex

 executed on             LinuxIFC date 2025.06.10  14:56:33

 INCAR:
   ISTART = 0
   ICHARG = 2
   PREC = N
   LREAL = .FALSE.
   ENCUT = 520
   ALGO = N
   NELM = 500
   EDIFF = 1E-05
   IBRION = -1
   ISIF = 3
   NSW = 0
   EDIFFG = -0.01
   ISMEAR = 1
   SIGMA = 0.1
   LVHAR = .TRUE.
   LVTOT = .TRUE.

 POTCAR:    PAW_PBE Ga_d 06Jul2010
 POTCAR:    PAW_PBE Ti_sv 26Sep2005
 POTCAR:    PAW_PBE Al 04Jan2001
|           W    W    AA    RRRRR   N    N  II  N    N   GGGG   !!!           |
|           W    W   A  A   R    R  NN   N  II  NN   N  G    G  !!!           |
|           W    W  A    A  R    R  N N  N  II  N N  N  G       !!!           |
|           W WW W  AAAAAA  RRRRR   N  N N  II  N  N N  G  GGG   !            |
|           WW  WW  A    A  R   R   N   NN  II  N   NN  G    G                |
|           W    W  A    A  R    R  N    N  II  N    N   GGGG   !!!           |
|     For optimal performance we recommend to set                             |
|       NCORE = 2 up to number-of-cores-per-socket                            |
|     This setting can greatly improve the performance of VASP for DFT.       |
|     The default, NCORE=1 might be grossly inefficient on modern             |
|     multi-core architectures or massively parallel machines. Do your        |
|     Unfortunately you need to use the default for GW and RPA                |
|     calculations (for HF NCORE is supported but not extensively tested      |
|     yet).                                                                   |

   TITEL  = PAW_PBE Ga_d 06Jul2010
   POMASS =   69.723; ZVAL   =   13.000    mass and valenz
   ENMAX  =  282.691; ENMIN  =  212.018 eV

   TITEL  = PAW_PBE Ti_sv 26Sep2005
   POMASS =   47.880; ZVAL   =   12.000    mass and valenz
   ENMAX  =  274.610; ENMIN  =  205.957 eV

   TITEL  = PAW_PBE Al 04Jan2001
   POMASS =   26.981; ZVAL   =    3.000    mass and valenz
   ENMAX  =  240.300; ENMIN  =  180.225 eV

  PAW_PBE Ga_d 06Jul2010                :
  PAW_PBE Ti_sv 26Sep2005               :
  PAW_PBE Al 04Jan2001                  :

 POSCAR: Generated by VASPKIT code
  positions in direct lattice

 exchange-correlation table for PE
   RHO(1)=    0.500       N(1)  =     2000
   RHO(2)=  100.500       N(2)  =     4000

 ion  position               nearest neighbor table
   1  0.000  0.000  0.322-  17 2.74  25 2.74   9 2.80   9 2.80  22 2.88  30 2.88
   2  0.000  0.500  0.500-  18 2.74  24 2.74  26 2.74  32 2.74  10 2.80  10 2.80  19 2.88  27 2.88
                            21 2.88  29 2.88
   3  0.000  0.750  0.411-  19 2.72  22 2.72  27 2.72  30 2.72  11 2.80  11 2.80  32 2.86  24 2.86
                            25 2.86  17 2.86
   4  0.000  0.250  0.589-  20 2.72  21 2.72  28 2.72  29 2.72  12 2.80  12 2.80  31 2.86  23 2.86
                            26 2.86  18 2.86
   5  0.000  0.250  0.411-  21 2.74  29 2.74  13 2.80  13 2.80  17 2.87  25 2.87  32 2.87  24 2.87

   6  0.000  0.750  0.589-  19 2.74  27 2.74  14 2.80  14 2.80  18 2.87  26 2.87  31 2.87  23 2.87

   7  0.000  0.000  0.500-  17 2.72  23 2.72  25 2.72  31 2.72  15 2.80  15 2.80  21 2.85  29 2.85
                            27 2.85  19 2.85
   8  0.000  0.500  0.322-  24 2.72  32 2.72  16 2.80  16 2.80  22 2.85  30 2.85
   9  0.500  0.000  0.322-  17 2.74  25 2.74   1 2.80   1 2.80  30 2.87  22 2.87
  10  0.500  0.500  0.500-  18 2.74  24 2.74  26 2.74  32 2.74   2 2.80   2 2.80  19 2.87  27 2.87
                            21 2.87  29 2.87
  11  0.500  0.750  0.411-  19 2.72  22 2.72  27 2.72  30 2.72   3 2.80   3 2.80  32 2.85  24 2.85
                            17 2.85  25 2.85
  12  0.500  0.250  0.589-  20 2.72  21 2.72  28 2.72  29 2.72   4 2.80   4 2.80  31 2.85  23 2.85
                            18 2.85  26 2.85
  13  0.500  0.250  0.411-  21 2.73  29 2.73   5 2.80   5 2.80  17 2.86  25 2.86  32 2.86  24 2.86

  14  0.500  0.750  0.589-  19 2.73  27 2.73   6 2.80   6 2.80  18 2.86  26 2.86  31 2.86  23 2.86

  15  0.500  0.000  0.500-  17 2.71  23 2.71  25 2.71  31 2.71   7 2.80   7 2.80  21 2.84  29 2.84
                            27 2.84  19 2.84
  16  0.500  0.500  0.322-  24 2.71  32 2.71   8 2.80   8 2.80  22 2.84  30 2.84
  17  0.251  0.999  0.412-  15 2.71   7 2.72   9 2.74   1 2.74  25 2.79  25 2.81  11 2.85   3 2.86
                            13 2.86   5 2.87  21 3.16  22 3.18
  18  0.251  0.499  0.590-  10 2.74   2 2.74  26 2.79  26 2.81  12 2.85   4 2.86  14 2.86   6 2.87
                            21 3.18
  19  0.251  0.752  0.500-  11 2.72   3 2.72  14 2.73   6 2.74  27 2.79  27 2.81  15 2.84   7 2.85
                            10 2.87   2 2.88  23 3.16  24 3.18
  20  0.251  0.252  0.678-  12 2.72   4 2.72  28 2.79  28 2.81  23 3.18
  21  0.251  0.248  0.500-  12 2.72   4 2.72  13 2.73   5 2.74  29 2.79  29 2.81  15 2.84   7 2.85
                            10 2.87   2 2.88  17 3.16  18 3.18
  22  0.251  0.748  0.323-  11 2.72   3 2.72  30 2.79  30 2.81  16 2.84   8 2.85   9 2.87   1 2.88
                            17 3.18
  23  0.251  0.001  0.588-  15 2.71   7 2.72  31 2.79  31 2.81  12 2.85   4 2.86  14 2.86   6 2.87
                            19 3.16  20 3.18
  24  0.251  0.501  0.411-  16 2.71   8 2.72  10 2.74   2 2.74  32 2.79  32 2.81  11 2.85   3 2.86
                            13 2.86   5 2.87  19 3.18
  25  0.749  0.999  0.412-  15 2.71   7 2.72   9 2.74   1 2.74  17 2.79  17 2.81  11 2.85   3 2.86
                            13 2.86   5 2.87  29 3.16  30 3.18
  26  0.749  0.499  0.590-  10 2.74   2 2.74  18 2.79  18 2.81  12 2.85   4 2.86  14 2.86   6 2.87
                            29 3.18
  27  0.749  0.752  0.500-  11 2.72   3 2.72  14 2.73   6 2.74  19 2.79  19 2.81  15 2.84   7 2.85
                            10 2.87   2 2.88  31 3.16  32 3.18
  28  0.749  0.252  0.678-  12 2.72   4 2.72  20 2.79  20 2.81  31 3.18
  29  0.749  0.248  0.500-  12 2.72   4 2.72  13 2.73   5 2.74  21 2.79  21 2.81  15 2.84   7 2.85
                            10 2.87   2 2.88  25 3.16  26 3.18
  30  0.749  0.748  0.323-  11 2.72   3 2.72  22 2.79  22 2.81  16 2.84   8 2.85   9 2.87   1 2.88
                            25 3.18
  31  0.749  0.001  0.588-  15 2.71   7 2.72  23 2.79  23 2.81  12 2.85   4 2.86  14 2.86   6 2.87
                            27 3.16  28 3.18
  32  0.749  0.501  0.411-  16 2.71   8 2.72  10 2.74   2 2.74  24 2.79  24 2.81  11 2.85   3 2.86
                            13 2.86   5 2.87  27 3.18

  LATTYP: Found a simple monoclinic cell.
 ALAT       =     9.9681310671
 B/A-ratio  =     0.5624877854
 C/A-ratio  =     2.6420291366
 COS(beta)  =    -0.1389897551

  Lattice vectors:

 A1 = (   0.0000000000,   9.9681310671,   0.0000000000)
 A2 = (  -5.6069519684,   0.0000000000,   0.0000000000)
 A3 = (   0.0000000000,  -3.6604470762,  26.0804698346)

Analysis of symmetry for initial positions (statically):
 Subroutine PRICEL returns:
 Original cell was already a primitive cell.

 Routine SETGRP: Setting up the symmetry group for a
 simple monoclinic supercell.

 Subroutine GETGRP returns: Found  2 space group operations
 (whereof  2 operations were pure point group operations)
 out of a pool of  4 trial point group operations.

The static configuration has the point symmetry C_1h.

Analysis of symmetry for dynamics (positions and initial velocities):
 Subroutine PRICEL returns:
 Original cell was already a primitive cell.

 Routine SETGRP: Setting up the symmetry group for a
 simple monoclinic supercell.

 Subroutine GETGRP returns: Found  2 space group operations
 (whereof  2 operations were pure point group operations)
 out of a pool of  4 trial point group operations.

The dynamic configuration has the point symmetry C_1h.

 Subroutine INISYM returns: Found  2 space group operations
 (whereof  2 operations are pure point group operations),
 and found     1 'primitive' translations

                                     Primitive cell

  volume of cell :    1457.6592

  direct lattice vectors                    reciprocal lattice vectors
     5.606951968  0.000000000  0.000000000     0.178350021 -0.000000000 -0.000000000
     0.000000000  9.968131067  0.000000000     0.000000000  0.100319708  0.014080075
     0.000000000 -3.660447076 26.080469835     0.000000000  0.000000000  0.038342868

  length of vectors
     5.606951968  9.968131067 26.336092717     0.178350021  0.101302973  0.038342868

  position of ions in fractional coordinates (direct lattice)
     1.000000000  0.000000000  0.322347790
     1.000000000  0.500000000  0.500099927
     1.000000000  0.750000000  0.411223859
     1.000000000  0.250000000  0.588975996
     1.000000000  0.250000000  0.411223859
     1.000000000  0.750000000  0.588975996
     1.000000000  0.000000000  0.500099927
     1.000000000  0.500000000  0.322347790
     0.500000000  0.000000000  0.322347790
     0.500000000  0.500000000  0.500099927
     0.500000000  0.750000000  0.411223859
     0.500000000  0.250000000  0.588975996
     0.500000000  0.250000000  0.411223859
     0.500000000  0.750000000  0.588975996
     0.500000000  0.000000000  0.500099927
     0.500000000  0.500000000  0.322347790
     0.250946882  0.999437828  0.411760334
     0.250946882  0.499437828  0.589512471
     0.250946882  0.751509054  0.499900073
     0.250946882  0.251509054  0.677652210
     0.250946882  0.248490946  0.500299782
     0.250946882  0.748490946  0.322547644
     0.250946882  0.000562172  0.588439521
     0.250946882  0.500562172  0.410687384
     0.749053118  0.999437828  0.411760334
     0.749053118  0.499437828  0.589512471
     0.749053118  0.751509054  0.499900073
     0.749053118  0.251509054  0.677652210
     0.749053118  0.248490946  0.500299782
     0.749053118  0.748490946  0.322547644
     0.749053118  0.000562172  0.588439521
     0.749053118  0.500562172  0.410687384

  ion indices of the primitive-cell ions
   primitive index   ion index
                 1           1
                 2           2
                 3           3
                 4           4
                 5           5
                 6           6
                 7           7
                 8           8
                 9           9
                10          10
                11          11
                12          12
                13          13
                14          14
                15          15
                16          16
                17          17
                18          18
                19          19
                20          20
                21          21
                22          22
                23          23
                24          24
                25          25
                26          26
                27          27
                28          28
                29          29
                30          30
                31          31
                32          32

 KPOINTS: K-Spacing Value to Generate K-Mesh: 0.03

Automatic generation of k-mesh.
 Grid dimensions read from file:
 generate k-points for:    6    3    1

 Generating k-lattice:

[...]
  1.1968  0.9258  0.9258  0.8794  0.8347  0.8347  0.6086  0.6086  0.4824  0.4093
  0.1216  0.1284  0.2232  0.2232  0.2530  0.2466  0.2375  0.1730  0.1882  0.1914
  0.2060  0.2101  0.2126

[...]

--------------------------------------- Iteration      1(  39)  ---------------------------------------

 eigenvalue-minimisations  :  2944
 total energy-change (2. order) :-0.4367845E-05  (-0.1526885E-07)
 number of electron     241.9999481 magnetization
 augmentation part       68.3805283 magnetization

 Free energy of the ion-electron system (eV)
  alpha Z        PSCENC =       224.08465733
  Ewald energy   TEWEN  =     68226.41498574
  -Hartree energ DENC   =    -91840.06672560
  -exchange      EXHF   =         0.00000000
  -V(xc)+E(xc)   XCENC  =       516.28745397
  PAW double counting   =     26086.33055473   -25924.09924590
  entropy T*S    EENTRO =         0.00576578
  eigenvalues    EBANDS =     -4847.50671011
  atomic energy  EATOM  =     27387.45954937
  Solvation  Ediel_sol  =         0.00000000
  free energy    TOTEN  =      -171.08971468 eV

  energy without entropy =     -171.09548046  energy(sigma->0) =     -171.09163661

 average (electrostatic) potential at core
  the test charge radii are     1.0314  1.0397  1.0406
  (the norm of the test charge is              1.0000)
       1 -69.5109       2 -69.8549       3 -80.2447       4 -80.2179       5 -80.5132
       6 -80.4529       7 -80.2415       8 -80.6356       9 -80.8476      10 -80.4127
      11 -80.0889      12 -80.1644      13 -80.3465      14 -80.3779      15 -80.1557
      16 -80.6496      17 -79.3523      18 -79.4752      19 -79.3027      20 -80.0544
      21 -79.3098      22 -79.4536      23 -79.2461      24 -79.3039      25 -79.3523
      26 -79.4752      27 -79.3027      28 -80.0544      29 -79.3098      30 -79.4536
      31 -79.2461      32 -79.3039

 E-fermi :   0.5136     XC(G=0):  -4.8391     alpha+bet : -5.6932

 val. band max:        0.5089059111   @ k =   0.1667   0.0000   0.0000
 cond. band min:       0.5226591882   @ k =   0.3333   0.3333   0.0000
 fundamental gap:      0.0137532771
 Fermi energy:         0.5136066196

 k-point     1 :       0.0000    0.0000    0.0000
  band No.  band energies     occupation
      1     -56.7944      2.00000
      2     -56.6296      2.00000
      3     -56.5680      2.00000
      4     -56.4632      2.00000
      5     -56.4077      2.00000
      6     -56.3649      2.00000
      7     -56.3104      2.00000
      8     -56.2813      2.00000
      9     -56.2140      2.00000
     10     -56.2068      2.00000
     11     -56.1836      2.00000
     12     -56.1099      2.00000
     13     -56.1004      2.00000
     14     -56.0430      2.00000
     15     -33.2994      2.00000
     16     -33.0571      2.00000
     17     -32.9887      2.00000
     18     -32.9759      2.00000
     19     -32.9326      2.00000
     20     -32.9254      2.00000
     21     -32.9097      2.00000
     22     -32.8714      2.00000
     23     -32.8637      2.00000
     24     -32.8611      2.00000
     25     -32.7646      2.00000
     26     -32.7625      2.00000
     27     -32.7622      2.00000
     28     -32.7120      2.00000
     29     -32.6748      2.00000
     30     -32.6633      2.00000
     31     -32.6481      2.00000
     32     -32.6450      2.00000
     33     -32.6283      2.00000
     34     -32.6183      2.00000
     35     -32.6157      2.00000
     36     -32.5924      2.00000
     37     -32.5806      2.00000
     38     -32.5652      2.00000
     39     -32.5561      2.00000
     40     -32.5436      2.00000
     41     -32.5400      2.00000
     42     -32.5141      2.00000
     43     -32.4955      2.00000
     44     -32.4810      2.00000
     45     -32.4543      2.00000
     46     -32.4482      2.00000
     47     -32.4406      2.00000
     48     -32.4280      2.00000
     49     -32.3922      2.00000
     50     -32.3623      2.00000
     51     -32.3359      2.00000
     52     -32.2679      2.00000
     53     -32.2299      2.00000
     54     -32.0950      2.00000
     55     -32.0827      2.00000
     56     -32.0496      2.00000
     57     -14.3543      2.00000
     58     -14.3199      2.00000
     59     -14.3072      2.00000
     60     -14.2828      2.00000
[...]
    178       3.9461      0.00000
    179       3.9548      0.00000
    180       4.0199      0.00000
    181       4.0596      0.00000
    182       4.2370      0.00000
    183       4.3140      0.00000
    184       4.4476      0.00000
    185       4.5008      0.00000
    186       4.5671      0.00000
    187       4.6472      0.00000
    188       4.6947      0.00000
    189       4.8323      0.00000
    190       4.9170      0.00000
    191       4.9570      0.00000
    192       4.9867      0.00000

[...]

 k-point     8 :       0.5000    0.3333    0.0000
  band No.  band energies     occupation
      1     -56.7944      2.00000
      2     -56.6055      2.00000
      3     -56.5923      2.00000
      4     -56.4581      2.00000
      5     -56.3973      2.00000
      6     -56.3651      2.00000
      7     -56.3209      2.00000
      8     -56.2866      2.00000
      9     -56.2065      2.00000
     10     -56.1979      2.00000
     11     -56.1699      2.00000
     12     -56.1214      2.00000
     13     -56.1135      2.00000
     14     -56.0491      2.00000
     15     -33.2994      2.00000
     16     -33.0441      2.00000
     17     -33.0003      2.00000
     18     -32.9758      2.00000
     19     -32.9189      2.00000
     20     -32.9105      2.00000
     21     -32.8868      2.00000
     22     -32.8611      2.00000
     23     -32.8535      2.00000
     24     -32.7691      2.00000
     25     -32.7585      2.00000
     26     -32.7069      2.00000
     27     -32.6749      2.00000
     28     -32.6659      2.00000
     29     -32.6532      2.00000
     30     -32.6524      2.00000
     31     -32.6490      2.00000
     32     -32.6343      2.00000
     33     -32.6130      2.00000
     34     -32.6095      2.00000
     35     -32.5692      2.00000
     36     -32.5541      2.00000
     37     -32.5476      2.00000
     38     -32.5269      2.00000
     39     -32.5179      2.00000
     40     -32.5054      2.00000
     41     -32.4856      2.00000
     42     -32.4739      2.00000
     43     -32.4675      2.00000
     44     -32.4668      2.00000
     45     -32.4625      2.00000
     46     -32.4564      2.00000
     47     -32.4190      2.00000
     48     -32.3968      2.00000
     49     -32.3743      2.00000
     50     -32.3695      2.00000
     51     -32.3574      2.00000
     52     -32.3541      2.00000
     53     -32.3430      2.00000
     54     -32.3317      2.00000
     55     -32.3076      2.00000
     56     -32.2566      2.00000
     57     -14.3540      2.00000
     58     -14.3194      2.00000
     59     -14.3058      2.00000
     60     -14.2742      2.00000
[...]
    178       4.1314      0.00000
    179       4.2497      0.00000
    180       4.3144      0.00000
    181       4.5844      0.00000
    182       4.5855      0.00000
    183       4.7546      0.00000
    184       4.8815      0.00000
    185       4.9576      0.00000
    186       5.0625      0.00000
    187       5.0902      0.00000
    188       5.2050      0.00000
    189       5.2686      0.00000
    190       5.2812      0.00000
    191       5.3896      0.00000
    192       5.4464      0.00000

 soft charge-density along one line, spin component           1
         0         1         2         3         4         5         6         7         8         9
 total charge-density along one line

------------------------ aborting loop because EDIFF is reached ----------------------------------------

  FORCE on cell =-STRESS in cart. coord.  units (eV):
  Direction    XX          YY          ZZ          XY          YZ          ZX
  Alpha Z   224.08466   224.08466   224.08466
  Ewald   81431.20467 78180.92559-91385.75455     0.00000   463.02142    -0.00000
  Hartree 87571.81644 85133.07833-80864.81782     0.00000   444.68350    -0.00000
  E(xc)   -1175.04268 -1178.00199 -1179.25995    -0.00000     0.36158    -0.00000
  Local  ************************169475.61420    -0.00000  -916.07155    -0.00000
  n-local  -198.26040  -103.73951  -115.16588     0.04893    -8.56225    -0.29891
  augment  1125.68071  1081.75223  1079.68913     0.00000     2.87435     0.00000
  Kinetic  2898.40214  2753.20716  2772.36774     0.63630     1.12124     0.05303
  Fock        0.00000     0.00000     0.00000     0.00000     0.00000     0.00000
  Total      -4.84055   -28.37232     6.75753    -0.00000   -12.57172    -0.00000
  in kB      -5.32046   -31.18527     7.42750    -0.00000   -13.81813    -0.00000

 VOLUME and BASIS-vectors are now :
  energy-cutoff  :      520.00
  volume of cell :     1457.66
      direct lattice vectors                 reciprocal lattice vectors
     5.606951968  0.000000000  0.000000000     0.178350021 -0.000000000 -0.000000000
     0.000000000  9.968131067  0.000000000     0.000000000  0.100319708  0.014080075
     0.000000000 -3.660447076 26.080469835     0.000000000  0.000000000  0.038342868

  length of vectors
     5.606951968  9.968131067 26.336092717     0.178350021  0.101302973  0.038342868

 FORCES acting on ions
    electron-ion (+dipol)            ewald-force                    non-local-force                 convergence-correction
   0.137E-13 -.911E+02 0.241E+04   -.156E-14 0.939E+02 -.242E+04   0.209E-16 -.292E+01 0.626E+01   0.669E-13 0.191E-03 0.198E-03
   0.269E-13 0.383E+01 -.666E+03   -.100E-13 -.346E+01 0.667E+03   -.484E-16 -.412E+00 -.745E+00   -.459E-13 -.358E-03 0.802E-03
   0.793E-14 0.628E+01 0.858E+03   -.100E-13 -.651E+01 -.859E+03   0.282E-16 0.357E+00 0.227E+00   0.471E-13 -.160E-03 0.710E-03
   0.188E-13 -.363E+02 -.200E+04   -.224E-13 0.358E+02 0.200E+04   -.124E-16 -.298E-01 -.346E+00   -.502E-13 0.112E-03 0.393E-03
   0.730E-14 -.232E+02 0.969E+03   0.300E-13 0.233E+02 -.968E+03   -.289E-16 0.904E-01 -.113E+01   0.180E-13 0.163E-03 0.770E-03
   0.183E-13 -.250E+02 -.211E+04   0.625E-15 0.253E+02 0.211E+04   -.120E-16 -.648E+00 0.920E+00   -.469E-13 -.939E-04 0.397E-03
   0.838E-14 0.494E+01 -.620E+03   -.119E-13 -.496E+01 0.620E+03   -.121E-16 0.339E-01 -.448E+00   -.466E-13 0.368E-03 0.870E-03
   -.102E-13 0.141E+03 0.224E+04   0.100E-13 -.137E+03 -.224E+04   -.291E-15 -.309E+01 -.331E+01   0.506E-13 -.166E-03 0.291E-03
   0.332E-12 -.898E+02 0.224E+04   0.150E-13 0.873E+02 -.223E+04   0.239E-16 0.266E+01 -.432E+01   0.413E-13 0.205E-03 0.186E-03
   0.386E-12 0.317E+01 -.615E+03   -.500E-14 -.324E+01 0.615E+03   -.345E-17 0.319E-02 -.116E+00   -.698E-14 -.329E-03 0.699E-03
   0.384E-12 0.624E+01 0.858E+03   0.625E-13 -.652E+01 -.859E+03   0.261E-16 0.986E-01 0.589E+00   0.458E-13 -.179E-03 0.864E-03
   0.401E-12 -.386E+02 -.199E+04   0.398E-13 0.382E+02 0.200E+04   -.125E-16 0.154E+00 -.689E+00   0.766E-15 0.121E-03 0.368E-03
   0.373E-12 -.236E+02 0.969E+03   -.250E-13 0.234E+02 -.969E+03   -.203E-16 0.107E+00 -.832E+00   0.643E-13 0.223E-03 0.920E-03
   0.415E-12 -.213E+02 -.211E+04   -.302E-13 0.213E+02 0.211E+04   0.671E-16 0.226E-01 0.202E+01   -.281E-14 -.126E-03 0.357E-03
   0.400E-12 0.474E+01 -.618E+03   0.188E-14 -.484E+01 0.619E+03   -.688E-17 0.119E-01 -.240E+00   -.114E-13 0.324E-03 0.841E-03
   0.365E-12 0.141E+03 0.224E+04   0.150E-13 -.138E+03 -.224E+04   -.249E-15 -.244E+01 -.324E+01   0.490E-13 -.152E-03 0.307E-03
   -.915E+00 -.101E+02 0.216E+03   0.137E+01 0.102E+02 -.216E+03   -.500E+00 0.113E+00 -.110E+01   -.211E-04 0.665E-04 0.251E-03
   -.980E+00 -.372E+01 -.554E+03   0.136E+01 0.438E+01 0.553E+03   -.533E+00 -.959E+00 0.186E+01   -.127E-05 -.128E-03 0.643E-04
   -.602E+00 0.541E+00 -.158E+03   0.998E+00 0.519E+00 0.158E+03   -.340E+00 -.107E+01 -.151E+00   0.186E-04 -.309E-04 0.173E-03
   0.438E+00 0.817E+01 -.662E+03   -.322E+00 -.752E+01 0.657E+03   -.104E+00 -.571E+00 0.420E+01   0.129E-05 0.183E-04 -.111E-03
   -.647E+00 -.252E+01 -.147E+03   0.103E+01 0.148E+01 0.147E+03   -.331E+00 0.108E+01 -.224E+00   0.736E-05 0.255E-04 0.246E-03
   -.501E+00 -.660E+01 0.590E+03   0.109E+01 0.493E+01 -.588E+03   -.424E+00 0.185E+01 -.321E+01   -.352E-04 -.597E-04 0.349E-04
   0.446E+00 0.209E+02 -.546E+03   -.376E+00 -.215E+02 0.544E+03   -.110E+00 0.318E+00 0.324E+01   -.142E-05 0.126E-03 0.105E-03
   -.803E+00 0.142E+02 0.226E+03   0.138E+01 -.144E+02 -.228E+03   -.632E+00 0.301E+00 0.195E+01   0.158E-05 -.757E-04 0.194E-03
   0.915E+00 -.101E+02 0.216E+03   -.137E+01 0.102E+02 -.216E+03   0.500E+00 0.113E+00 -.110E+01   0.211E-04 0.665E-04 0.251E-03
   0.980E+00 -.372E+01 -.554E+03   -.136E+01 0.438E+01 0.553E+03   0.533E+00 -.959E+00 0.186E+01   0.127E-05 -.128E-03 0.643E-04
   0.602E+00 0.541E+00 -.158E+03   -.998E+00 0.519E+00 0.158E+03   0.340E+00 -.107E+01 -.151E+00   -.186E-04 -.309E-04 0.173E-03
   -.438E+00 0.817E+01 -.662E+03   0.322E+00 -.752E+01 0.657E+03   0.104E+00 -.571E+00 0.420E+01   -.129E-05 0.183E-04 -.111E-03
   0.647E+00 -.252E+01 -.147E+03   -.103E+01 0.148E+01 0.147E+03   0.331E+00 0.108E+01 -.224E+00   -.736E-05 0.255E-04 0.246E-03
   0.501E+00 -.660E+01 0.590E+03   -.109E+01 0.493E+01 -.588E+03   0.424E+00 0.185E+01 -.321E+01   0.352E-04 -.597E-04 0.349E-04
   -.446E+00 0.209E+02 -.546E+03   0.376E+00 -.215E+02 0.544E+03   0.110E+00 0.318E+00 0.324E+01   0.142E-05 0.126E-03 0.105E-03
   0.803E+00 0.142E+02 0.226E+03   -.138E+01 -.144E+02 -.228E+03   0.632E+00 0.301E+00 0.195E+01   -.158E-05 -.757E-04 0.194E-03
   0.285E-11 0.389E+01 -.776E+01   -.522E-13 0.176E-12 0.909E-12   -.222E-15 -.389E+01 0.775E+01   0.170E-12 0.275E-04 0.109E-01

 POSITION                                       TOTAL-FORCE (eV/Angst)
      0.00000     -1.17994      8.40698        -0.000000     -0.182226     -0.420704
      0.00000      3.15348     13.04284        -0.000000     -0.039381      0.097431
      0.00000      5.97084     10.72491         0.000000      0.125849     -0.076224
      0.00000      0.33612     15.36077        -0.000000     -0.551412      0.288511
      0.00000      0.98677     10.72491        -0.000000      0.223514     -0.670023
      0.00000      5.32018     15.36077        -0.000000     -0.298723     -0.555360
      0.00000     -1.83059     13.04284        -0.000000      0.019311     -0.416702
      0.00000      3.80413      8.40698         0.000000      0.597448      0.801843
      2.80348     -1.17994      8.40698         0.000000      0.096383      0.661470
      2.80348      3.15348     13.04284        -0.000000     -0.074543     -0.068261
      2.80348      5.97084     10.72491        -0.000000     -0.188094      0.217751
      2.80348      0.33612     15.36077        -0.000000     -0.297439     -0.063759
      2.80348      0.98677     10.72491        -0.000000     -0.079480     -0.610934
      2.80348      5.32018     15.36077         0.000000      0.078342     -0.046022
      2.80348     -1.83059     13.04284        -0.000000     -0.089884      0.153002
      2.80348      3.80413      8.40698         0.000000      0.551208      0.410152
      1.40705      8.45530     10.73890        -0.042564      0.215008     -0.328036
      1.40705      2.82058     15.37476        -0.148243     -0.301807      0.642693
      1.40705      5.66128     13.03763         0.056515     -0.007251      0.201696
      1.40705      0.02657     17.67349         0.011780      0.083055     -0.386544
      1.40705      0.64567     13.04805         0.053947      0.037310     -0.349625
      1.40705      6.28039      8.41219         0.163569      0.177515     -0.690782
      1.40705     -2.14835     15.34678        -0.040264     -0.258446      1.021653
      1.40705      3.48637     10.71092        -0.052786      0.109179      0.037858
      4.19990      8.45530     10.73890         0.042564      0.215008     -0.328036
      4.19990      2.82058     15.37476         0.148243     -0.301807      0.642693
      4.19990      5.66128     13.03763        -0.056515     -0.007251      0.201696
      4.19990      0.02657     17.67349        -0.011780      0.083055     -0.386544
      4.19990      0.64567     13.04805        -0.053947      0.037310     -0.349625
      4.19990      6.28039      8.41219        -0.163569      0.177515     -0.690782
      4.19990     -2.14835     15.34678         0.040264     -0.258446      1.021653
      4.19990      3.48637     10.71092         0.052786      0.109179      0.037858
    total drift:                                0.000000      0.000660     -0.006499

  FREE ENERGIE OF THE ION-ELECTRON SYSTEM (eV)
  free  energy   TOTEN  =      -171.08971468 eV

  energy  without entropy=     -171.09548046  energy(sigma->0) =     -171.09163661

 writing wavefunctions