 vasp.6.5.0 16Dec24 (build Apr 17 2025 17:55:45) complex

 executed on             LinuxIFC date 2025.06.10  11:32:27

 INCAR:
   ISTART = 0
   ICHARG = 2
   PREC = N
   LREAL = .FALSE.
   ENCUT = 520
   ALGO = N
   NELM = 500
   EDIFF = 1E-05
   IBRION = -1
   ISIF = 3
   NSW = 0
   EDIFFG = -0.01
   ISMEAR = 1
   SIGMA = 0.1
   LVHAR = .TRUE.
   LVTOT = .TRUE.

 POTCAR:    PAW_PBE Ti_sv 26Sep2005
 POTCAR:    PAW_PBE Ga_d 06Jul2010
 POTCAR:    PAW_PBE Al 04Jan2001
|           W    W    AA    RRRRR   N    N  II  N    N   GGGG   !!!           |
|           W    W   A  A   R    R  NN   N  II  NN   N  G    G  !!!           |
|           W    W  A    A  R    R  N N  N  II  N N  N  G       !!!           |
|           W WW W  AAAAAA  RRRRR   N  N N  II  N  N N  G  GGG   !            |
|           WW  WW  A    A  R   R   N   NN  II  N   NN  G    G                |
|           W    W  A    A  R    R  N    N  II  N    N   GGGG   !!!           |
|     For optimal performance we recommend to set                             |
|       NCORE = 2 up to number-of-cores-per-socket                            |
|     This setting can greatly improve the performance of VASP for DFT.       |
|     The default, NCORE=1 might be grossly inefficient on modern             |
|     multi-core architectures or massively parallel machines. Do your        |
|     Unfortunately you need to use the default for GW and RPA                |
|     calculations (for HF NCORE is supported but not extensively tested      |
|     yet).                                                                   |

   TITEL  = PAW_PBE Ti_sv 26Sep2005
   POMASS =   47.880; ZVAL   =   12.000    mass and valenz
   ENMAX  =  274.610; ENMIN  =  205.957 eV

   TITEL  = PAW_PBE Ga_d 06Jul2010
   POMASS =   69.723; ZVAL   =   13.000    mass and valenz
   ENMAX  =  282.691; ENMIN  =  212.018 eV

   TITEL  = PAW_PBE Al 04Jan2001
   POMASS =   26.981; ZVAL   =    3.000    mass and valenz
   ENMAX  =  240.300; ENMIN  =  180.225 eV

  PAW_PBE Ti_sv 26Sep2005               :
  PAW_PBE Ga_d 06Jul2010                :
  PAW_PBE Al 04Jan2001                  :

 POSCAR: Generated by VASPKIT code
  positions in direct lattice

 exchange-correlation table for PE
   RHO(1)=    0.500       N(1)  =     2000
   RHO(2)=  100.500       N(2)  =     4000

 ion  position               nearest neighbor table
   1  0.000  0.001  0.390-   5 2.82   3 2.82   3 2.82   9 2.84  11 2.84  10 2.85  12 2.85
   2  0.000  0.499  0.390-   6 2.82   4 2.82   4 2.82   9 2.84  11 2.84  10 2.85  12 2.85
   3  0.500  0.001  0.390-   7 2.82   1 2.82   1 2.82   9 2.84  11 2.84  10 2.85  12 2.85
   4  0.500  0.499  0.390-   8 2.82   2 2.82   2 2.82   9 2.84  11 2.84  10 2.85  12 2.85
   5  0.000  0.001  0.537-   1 2.82   7 2.82   7 2.82   9 2.84  11 2.84  13 2.84  15 2.84  10 2.85
                            12 2.85  14 2.85  16 2.85
   6  0.000  0.499  0.537-   2 2.82   8 2.82   8 2.82   9 2.84  11 2.84  13 2.84  15 2.84  10 2.85
                            12 2.85  14 2.85  16 2.85
   7  0.500  0.001  0.537-   3 2.82   5 2.82   5 2.82   9 2.84  11 2.84  13 2.84  15 2.84  10 2.85
                            12 2.85  14 2.85  16 2.85
   8  0.500  0.499  0.537-   4 2.82   6 2.82   6 2.82   9 2.84  11 2.84  13 2.84  15 2.84  10 2.85
                            12 2.85  14 2.85  16 2.85
   9  0.250  0.250  0.463-  13 2.82  11 2.82  11 2.82   4 2.84   5 2.84   6 2.84   7 2.84   8 2.84
                             1 2.84   2 2.84   3 2.84
  10  0.250  0.750  0.463-  14 2.82  12 2.82  12 2.82   4 2.85   5 2.85   6 2.85   7 2.85   8 2.85
                             1 2.85   2 2.85   3 2.85
  11  0.750  0.250  0.463-  15 2.82   9 2.82   9 2.82   8 2.84   1 2.84   4 2.84   5 2.84   2 2.84
                             3 2.84   6 2.84   7 2.84
  12  0.750  0.750  0.463-  16 2.82  10 2.82  10 2.82   4 2.85   5 2.85   6 2.85   7 2.85   8 2.85
                             1 2.85   2 2.85   3 2.85
  13  0.250  0.250  0.610-   9 2.82  15 2.82  15 2.82   7 2.84   6 2.84   8 2.84   5 2.84
  14  0.250  0.750  0.610-  10 2.82  16 2.82  16 2.82   8 2.85   5 2.85   6 2.85   7 2.85
  15  0.750  0.250  0.610-  11 2.82  13 2.82  13 2.82   8 2.84   5 2.84   6 2.84   7 2.84
  16  0.750  0.750  0.610-  12 2.82  14 2.82  14 2.82   7 2.85   6 2.85   8 2.85   5 2.85

  LATTYP: Found a simple orthorhombic cell.
 ALAT       =     5.6452860611
 B/A-ratio  =     1.4365937127
 C/A-ratio  =     3.4068869738

  Lattice vectors:

 A1 = (   5.6452860611,   0.0000000000,   0.0000000000)
 A2 = (   0.0000000000,   8.1099824619,   0.0000000000)
 A3 = (   0.0000000000,   0.0000000000,  19.2328515445)

Analysis of symmetry for initial positions (statically):
 Subroutine PRICEL returns:
 Original cell was already a primitive cell.

 Routine SETGRP: Setting up the symmetry group for a
 simple orthorhombic supercell.

 Subroutine GETGRP returns: Found  4 space group operations
 (whereof  1 operations were pure point group operations)
 out of a pool of  8 trial point group operations.

The static configuration has the point symmetry C_1 .
 The point group associated with its full space group is C_2v.

Analysis of symmetry for dynamics (positions and initial velocities):
 Subroutine PRICEL returns:
 Original cell was already a primitive cell.

 Routine SETGRP: Setting up the symmetry group for a
 simple orthorhombic supercell.

 Subroutine GETGRP returns: Found  4 space group operations
 (whereof  1 operations were pure point group operations)
 out of a pool of  8 trial point group operations.

The dynamic configuration has the point symmetry C_1 .
 The point group associated with its full space group is C_2v.

 Subroutine INISYM returns: Found  4 space group operations
 (whereof  1 operations are pure point group operations),
 and found     1 'primitive' translations

                                     Primitive cell

  volume of cell :     880.5409

  direct lattice vectors                    reciprocal lattice vectors
     5.645286061  0.000000000  0.000000000     0.177138942 -0.000000000 -0.000000000
     0.000000000  8.109982462  0.000000000     0.000000000  0.123304829 -0.000000000
     0.000000000  0.000000000 19.232851545     0.000000000  0.000000000  0.051994370

  length of vectors
     5.645286061  8.109982462 19.232851545     0.177138942  0.123304829  0.051994370

  position of ions in fractional coordinates (direct lattice)
     0.000197156  0.000617192  0.389957775
     0.000197156  0.499382808  0.389957775
     0.499802844  0.000617192  0.389957775
     0.499802844  0.499382808  0.389957775
     0.000197156  0.000617192  0.536603582
     0.000197156  0.499382808  0.536603582
     0.499802844  0.000617192  0.536603582
     0.499802844  0.499382808  0.536603582
     0.250000000  0.250000000  0.463280679
     0.250000000  0.750000000  0.463280679
     0.750000000  0.250000000  0.463280679
     0.750000000  0.750000000  0.463280679
     0.250000000  0.250000000  0.610042225
     0.250000000  0.750000000  0.610042225
     0.750000000  0.250000000  0.610042225
     0.750000000  0.750000000  0.610042225

  ion indices of the primitive-cell ions
   primitive index   ion index
                 1           1
                 2           2
                 3           3
                 4           4
                 5           5
                 6           6
                 7           7
                 8           8
                 9           9
                10          10
                11          11
                12          12
                13          13
                14          14
                15          15
                16          16

 KPOINTS: K-Spacing Value to Generate K-Mesh: 0.03

Automatic generation of k-mesh.
 Grid dimensions read from file:
 generate k-points for:    6    4    1

 Generating k-lattice:

  Cartesian coordinates                     Fractional coordinates (reciprocal lattice)
     0.029523157 -0.000000000 -0.000000000     0.166666667  0.000000000  0.000000000
     0.000000000  0.030826207 -0.000000000     0.000000000  0.250000000  0.000000000
     0.000000000  0.000000000  0.051994370     0.000000000  0.000000000  1.000000000

  Length of vectors
     0.029523157  0.030826207  0.051994370

  Shift w.r.t. Gamma in fractional coordinates (k-lattice)
     0.000000000  0.000000000  0.000000000

 Subroutine IBZKPT returns following result:

 Found     12 irreducible k-points:

 Following reciprocal coordinates:
            Coordinates               Weight
  0.000000  0.000000  0.000000      1.000000
  0.166667  0.000000  0.000000      2.000000
  0.333333  0.000000  0.000000      2.000000
  0.500000  0.000000  0.000000      1.000000
  0.000000  0.250000  0.000000      2.000000
  0.166667  0.250000  0.000000      4.000000
  0.333333  0.250000  0.000000      4.000000
  0.500000  0.250000  0.000000      2.000000
  0.000000  0.500000  0.000000      1.000000
  0.166667  0.500000  0.000000      2.000000
  0.333333  0.500000  0.000000      2.000000
  0.500000  0.500000  0.000000      1.000000

 Following cartesian coordinates:
            Coordinates               Weight
  0.000000  0.000000  0.000000      1.000000
  0.029523  0.000000  0.000000      2.000000
  0.059046  0.000000  0.000000      2.000000
  0.088569  0.000000  0.000000      1.000000
  0.000000  0.030826  0.000000      2.000000
  0.029523  0.030826  0.000000      4.000000
  0.059046  0.030826  0.000000      4.000000
  0.088569  0.030826  0.000000      2.000000
  0.000000  0.061652  0.000000      1.000000
  0.029523  0.061652  0.000000      2.000000
  0.059046  0.061652  0.000000      2.000000
  0.088569  0.061652  0.000000      1.000000

 SYSTEM =  unknown system
 POSCAR =  Generated by VASPKIT code

 Startparameter for this run:
   NWRITE =      2    write-flag & timer
   PREC   = n         normal or accurate (medium, high low for compatibility)
   ISTART =      0    job   : 0-new  1-cont  2-samecut
   ICHARG =      2    charge: 1-file 2-atom 10-const
   ISPIN  =      1    spin polarized calculation?
   LNONCOLLINEAR =      F non collinear calculations
   LSORBIT =      F    spin-orbit coupling
   INIWAV =      1    electr: 0-lowe 1-rand  2-diag
   LASPH  =      F    aspherical Exc in radial PAW
 Electronic Relaxation 1
   ENCUT  =  520.0 eV  38.22 Ry    6.18 a.u.  10.50 15.08 35.76*2*pi/ulx,y,z
   ENINI  =  520.0     initial cutoff
   ENAUG  =  490.7 eV  augmentation charge cutoff
   NELM   =    500;   NELMIN=  2; NELMDL= -5     # of ELM steps
   EDIFF  = 0.1E-04   stopping-criterion for ELM
   LREAL  =      F    real-space projection
   NLSPLINE    = F    spline interpolate recip. space projectors
   LCOMPAT=      F    compatible to vasp.4.4
   GGA_COMPAT  = T    GGA compatible to vasp.4.4-vasp.4.6
   LMAXPAW     = -100 max onsite density
   LMAXMIX     =    2 max onsite mixed and CHGCAR
   VOSKOWN=      0    Vosko Wilk Nusair interpolation
   ROPT   =    0.00000   0.00000   0.00000
 Ionic relaxation
   EDIFFG = -.1E-01   stopping-criterion for IOM
   NSW    =      0    number of steps for IOM
   NBLOCK =      1;   KBLOCK =      1    inner block; outer block
   IBRION =     -1    ionic relax: 0-MD 1-quasi-New 2-CG
[...]
   1.41132152  2.02749562 11.73285154
   1.41132152  6.08248685 11.73285154
   4.23396455  2.02749562 11.73285154
   4.23396455  6.08248685 11.73285154

 k-point     1 :   0.0000 0.0000 0.0000  plane waves:   23721
 k-point     2 :   0.1667 0.0000 0.0000  plane waves:   23743
 k-point     3 :   0.3333 0.0000 0.0000  plane waves:   23687
 k-point     4 :   0.5000 0.0000 0.0000  plane waves:   23636
 k-point     5 :   0.0000 0.2500 0.0000  plane waves:   23750
 k-point     6 :   0.1667 0.2500 0.0000  plane waves:   23734
 k-point     7 :   0.3333 0.2500 0.0000  plane waves:   23692
 k-point     8 :   0.5000 0.2500 0.0000  plane waves:   23664
 k-point     9 :   0.0000 0.5000 0.0000  plane waves:   23766
 k-point    10 :   0.1667 0.5000 0.0000  plane waves:   23716
 k-point    11 :   0.3333 0.5000 0.0000  plane waves:   23714
 k-point    12 :   0.5000 0.5000 0.0000  plane waves:   23672

 maximum and minimum number of plane-waves per node :     23766    23636

 maximum number of plane-waves:     23766
 maximum index in each direction:
   IXMAX=   10   IYMAX=   15   IZMAX=   35
   IXMIN=  -10   IYMIN=  -15   IZMIN=  -35

 serial   3D FFT for wavefunctions
 parallel 3D FFT for charge:
    minimum data exchange during FFTs selected (reduces bandwidth)

 Broyden mixing: mesh for mixing (old mesh)
   NGX = 21   NGY = 31   NGZ = 71
  (NGX  = 64   NGY  = 96   NGZ  =216)
  gives a total of  46221 points

 initial charge density was supplied:
 charge density of overlapping atoms calculated
 number of electron     130.0000000 magnetization
 keeping initial charge density in first step

 Maximum index for augmentation-charges          452 (set IRDMAX)

 First call to EWALD:  gamma=   0.185
 Maximum number of real-space cells   4x   3x   2
 Maximum number of reciprocal cells   2x   2x   5

--------------------------------------- Ionic step        1  -------------------------------------------

--------------------------------------- Iteration      1(   1)  ---------------------------------------

 eigenvalue-minimisations  :  3072
 total energy-change (2. order) : 0.9625559E+03  (-0.6435380E+04)
 number of electron     130.0000000 magnetization
 augmentation part      130.0000000 magnetization

 Free energy of the ion-electron system (eV)
  alpha Z        PSCENC =       112.03316576
  Ewald energy   TEWEN  =     19091.97182988
  -Hartree energ DENC   =    -32058.72847822
  -exchange      EXHF   =         0.00000000
  -V(xc)+E(xc)   XCENC  =       349.84196346
  PAW double counting   =     12183.07835080   -12136.27052386
  entropy T*S    EENTRO =        -0.00251208
  eigenvalues    EBANDS =     -1807.64423091
  atomic energy  EATOM  =     15228.27630495
  Solvation  Ediel_sol  =         0.00000000
  free energy    TOTEN  =       962.55586978 eV

  energy without entropy =      962.55838186  energy(sigma->0) =      962.55670714

[...]

 eigenvalue-minimisations  :  3392
 total energy-change (2. order) :-0.9566780E+03  (-0.9021276E+03)
 number of electron     130.0000000 magnetization
 augmentation part      130.0000000 magnetization

[...]

 Broyden mixing:
  rms(total) = 0.26108E+01    rms(broyden)= 0.26108E+01
  rms(prec ) = 0.32004E+01
  weight for this iteration     100.00

[...]

 eigenvalues of (default mixing * dielectric matrix)
  average eigenvalue GAMMA=   0.2559
  0.2559

[...]

 eigenvalue-minimisations  :  3840
 total energy-change (2. order) : 0.3732013E-02  (-0.2709857E-02)
 number of electron     129.9999854 magnetization
 augmentation part       37.8471680 magnetization

[...]

 Broyden mixing:
  rms(total) = 0.73788E-04    rms(broyden)= 0.73785E-04
  rms(prec ) = 0.85244E-04
  weight for this iteration     100.00

 eigenvalues of (default mixing * dielectric matrix)
  average eigenvalue GAMMA=   2.0223
  8.4037  5.5218  3.1623  3.1623  2.2241  2.2241  2.1044  0.1615  0.4116  1.4067
  1.4067  0.6034  0.7498  1.0884  0.9127  0.9127  1.0132  0.9313

[...]

--------------------------------------- Iteration      1(  24)  ---------------------------------------

 eigenvalue-minimisations  :  3264
 total energy-change (2. order) :-0.7039886E-05  (-0.4730286E-07)
 number of electron     129.9999854 magnetization
 augmentation part       37.8396582 magnetization

 Free energy of the ion-electron system (eV)
  alpha Z        PSCENC =       112.03316576
  Ewald energy   TEWEN  =     19091.97182988
  -Hartree energ DENC   =    -32146.20924558
  -exchange      EXHF   =         0.00000000
  -V(xc)+E(xc)   XCENC  =       343.06624513
  PAW double counting   =     14072.75561124   -13996.66846356
  entropy T*S    EENTRO =        -0.01402597
  eigenvalues    EBANDS =     -2791.42451544
  atomic energy  EATOM  =     15228.27630495
  Solvation  Ediel_sol  =         0.00000000
  free energy    TOTEN  =       -86.21309360 eV

  energy without entropy =      -86.19906763  energy(sigma->0) =      -86.20841828

 average (electrostatic) potential at core
  the test charge radii are     1.0397  1.0314  1.0406
  (the norm of the test charge is              1.0000)
       1 -81.1672       2 -81.1672       3 -81.1672       4 -81.1672       5 -80.8327
       6 -80.8327       7 -80.8327       8 -80.8327       9 -69.9737      10 -79.7356
      11 -79.8264      12 -79.7431      13 -80.2912      14 -80.2441      15 -80.2536
      16 -80.2405

 E-fermi :  -0.0670     XC(G=0):  -4.4436     alpha+bet : -4.7526

 val. band max:       -0.0692638564   @ k =   0.0000   0.2500   0.0000
 cond. band min:      -0.0549426341   @ k =   0.3333   0.2500   0.0000
 fundamental gap:      0.0143212223
 Fermi energy:        -0.0669742679

 k-point     1 :       0.0000    0.0000    0.0000
  band No.  band energies     occupation
      1     -57.1535      2.00000
      2     -57.1531      2.00000
      3     -57.0977      2.00000
      4     -57.0973      2.00000
      5     -56.8023      2.00000
      6     -56.8018      2.00000
      7     -56.7461      2.00000
      8     -56.7456      2.00000
      9     -33.5729      2.00000
     10     -33.5714      2.00000
     11     -33.5182      2.00000
     12     -33.5174      2.00000
     13     -33.4704      2.00000
     14     -33.4676      2.00000
     15     -33.4586      2.00000
     16     -33.4480      2.00000
     17     -33.4076      2.00000
     18     -33.3981      2.00000
     19     -33.1910      2.00000
     20     -33.1762      2.00000
     21     -33.1698      2.00000
     22     -33.1677      2.00000
     23     -33.1330      2.00000
     24     -33.1214      2.00000
     25     -33.0342      2.00000
     26     -33.0328      2.00000
     27     -33.0134      2.00000
     28     -33.0130      2.00000
     29     -32.9835      2.00000
     30     -32.9826      2.00000
     31     -32.7124      2.00000
     32     -32.7118      2.00000
     33     -14.4633      2.00000
     34     -14.4558      2.00000
     35     -14.4506      2.00000
     36     -14.4425      2.00000
     37     -14.4110      2.00000
     38      -8.4630      2.00000
     39      -7.1253      2.00000
     40      -6.0817      2.00000
     41      -5.3607      2.00000
     42      -4.4919      2.00000
     43      -4.4167      2.00000
     44      -4.0799      2.00000
     45      -3.8098      2.00000
     46      -3.1390      2.00000
     47      -2.7361      2.00000
     48      -2.6915      2.00000
     49      -2.3866      2.00000
     50      -2.2400      2.00000
     51      -2.1704      2.00000
     52      -1.7458      2.00000
     53      -1.7110      2.00000
     54      -1.4405      2.00000
     55      -1.4269      2.00000
     56      -1.3155      2.00000
     57      -1.3144      2.00000
     58      -1.0909      2.00000
     59      -0.7619      2.00000
     60      -0.5675      2.00000
[...]
    114       5.7267      0.00000
    115       5.8289      0.00000
    116       5.9920      0.00000
    117       6.0311      0.00000
    118       6.0612      0.00000
    119       6.1108      0.00000
    120       6.1848      0.00000
    121       6.2580      0.00000
    122       6.4733      0.00000
    123       6.5091      0.00000
    124       6.5427      0.00000
    125       6.7597      0.00000
    126       6.7786      0.00000
    127       6.8261      0.00000
    128       6.9776      0.00000

[...]

 k-point    12 :       0.5000    0.5000    0.0000
  band No.  band energies     occupation
      1     -57.1258      2.00000
      2     -57.1258      2.00000
      3     -57.1252      2.00000
      4     -57.1252      2.00000
      5     -56.7744      2.00000
      6     -56.7743      2.00000
      7     -56.7738      2.00000
      8     -56.7738      2.00000
      9     -33.5453      2.00000
     10     -33.5451      2.00000
     11     -33.5446      2.00000
     12     -33.5445      2.00000
     13     -33.4296      2.00000
     14     -33.4294      2.00000
     15     -33.4292      2.00000
     16     -33.4290      2.00000
     17     -33.2448      2.00000
     18     -33.2448      2.00000
     19     -33.2415      2.00000
     20     -33.2414      2.00000
     21     -33.1559      2.00000
     22     -33.1555      2.00000
     23     -33.1554      2.00000
     24     -33.1550      2.00000
     25     -33.0092      2.00000
     26     -33.0091      2.00000
     27     -33.0089      2.00000
     28     -33.0088      2.00000
     29     -32.9449      2.00000
     30     -32.9448      2.00000
     31     -32.9411      2.00000
     32     -32.9410      2.00000
     33     -14.4597      2.00000
     34     -14.4562      2.00000
     35     -14.4511      2.00000
     36     -14.4423      2.00000
     37     -14.4106      2.00000
     38      -7.3632      2.00000
     39      -6.6745      2.00000
     40      -6.6189      2.00000
     41      -6.6091      2.00000
     42      -4.8938      2.00000
     43      -4.6717      2.00000
     44      -4.6351      2.00000
     45      -4.6310      2.00000
     46      -2.4030      2.00000
     47      -2.3289      2.00000
     48      -2.3039      2.00000
     49      -2.2926      2.00000
     50      -1.6700      2.00000
     51      -1.6094      2.00000
     52      -1.6030      2.00000
     53      -1.5990      2.00000
     54      -1.0111      2.00000
     55      -0.9924      2.00000
     56      -0.9819      2.00000
     57      -0.9690      2.00000
     58      -0.4212      2.00001
     59      -0.3800      2.00009
     60      -0.3736      2.00013
[...]
    114       5.4574      0.00000
    115       5.5233      0.00000
    116       5.5696      0.00000
    117       5.5703      0.00000
    118       5.6974      0.00000
    119       5.8882      0.00000
    120       5.9095      0.00000
    121       5.9238      0.00000
    122       6.2973      0.00000
    123       6.3125      0.00000
    124       6.3369      0.00000
    125       6.3787      0.00000
    126       7.3290      0.00000
    127       7.3425      0.00000
    128       7.3426      0.00000

 soft charge-density along one line, spin component           1
         0         1         2         3         4         5         6         7         8         9
 total charge-density along one line

------------------------ aborting loop because EDIFF is reached ----------------------------------------

  FORCE on cell =-STRESS in cart. coord.  units (eV):
  Direction    XX          YY          ZZ          XY          YZ          ZX
  Alpha Z   112.03317   112.03317   112.03317
  Ewald   26150.39114 24740.66996-31799.10188     0.00000     0.00000    -0.00000
  Hartree 29568.70531 28448.54976-25871.06205    -0.00000    -0.00000    -0.00000
  E(xc)    -639.94378  -641.94984  -642.47312     0.00000    -0.00000     0.00000
  Local  -57273.59497-54696.23113 56169.20910    -0.00000    -0.00000     0.00000
  n-local  -167.89901   -97.75880  -131.47775    -0.37728    -0.00000     0.00000
  augment   624.98796   596.37968   603.11087    -0.00000     0.00000    -0.00000
  Kinetic  1617.44223  1521.51096  1553.86250    -0.31216     0.00000    -0.00000
  Fock        0.00000     0.00000     0.00000     0.00000     0.00000     0.00000
  Total      -7.87796   -16.79625    -5.89916    -0.00000    -0.00000    -0.00000
  in kB     -14.33424   -30.56140   -10.73374    -0.00000    -0.00000    -0.00000

 VOLUME and BASIS-vectors are now :
  energy-cutoff  :      520.00
  volume of cell :      880.54
      direct lattice vectors                 reciprocal lattice vectors
     5.645286061  0.000000000  0.000000000     0.177138942 -0.000000000 -0.000000000
     0.000000000  8.109982462  0.000000000     0.000000000  0.123304829 -0.000000000
     0.000000000  0.000000000 19.232851545     0.000000000  0.000000000  0.051994370

  length of vectors
     5.645286061  8.109982462 19.232851545     0.177138942  0.123304829  0.051994370

 FORCES acting on ions
    electron-ion (+dipol)            ewald-force                    non-local-force                 convergence-correction
   0.648E+02 0.141E+03 0.134E+04   -.650E+02 -.142E+03 -.133E+04   0.222E+00 0.340E+00 -.488E+01   0.575E-04 -.228E-05 0.250E-02
   0.648E+02 -.141E+03 0.134E+04   -.650E+02 0.142E+03 -.133E+04   0.222E+00 -.340E+00 -.488E+01   0.575E-04 0.228E-05 0.250E-02
   -.648E+02 0.141E+03 0.134E+04   0.650E+02 -.142E+03 -.133E+04   -.222E+00 0.340E+00 -.488E+01   -.575E-04 -.228E-05 0.250E-02
   -.648E+02 -.141E+03 0.134E+04   0.650E+02 0.142E+03 -.133E+04   -.222E+00 -.340E+00 -.488E+01   -.575E-04 0.228E-05 0.250E-02
   0.648E+02 0.142E+03 -.991E+03   -.650E+02 -.142E+03 0.991E+03   0.183E+00 0.265E+00 0.256E+00   0.293E-04 -.113E-04 0.118E-02
   0.648E+02 -.142E+03 -.991E+03   -.650E+02 0.142E+03 0.991E+03   0.183E+00 -.265E+00 0.256E+00   0.293E-04 0.113E-04 0.118E-02
   -.648E+02 0.142E+03 -.991E+03   0.650E+02 -.142E+03 0.991E+03   -.183E+00 0.265E+00 0.256E+00   -.293E-04 -.113E-04 0.118E-02
   -.648E+02 -.142E+03 -.991E+03   0.650E+02 0.142E+03 0.991E+03   -.183E+00 -.265E+00 0.256E+00   -.293E-04 0.113E-04 0.118E-02
   0.230E-12 0.727E-12 0.225E+03   -.317E-13 0.240E-13 -.227E+03   0.364E-16 0.364E-16 0.233E+01   0.476E-13 -.150E-12 0.278E-02
   -.594E-14 0.301E-12 0.523E+02   0.501E-14 -.684E-14 -.525E+02   -.967E-18 -.967E-18 -.620E-01   0.454E-14 0.156E-13 0.585E-03
   -.488E-13 -.130E-12 0.522E+02   0.411E-14 0.411E-13 -.525E+02   -.406E-18 -.406E-18 -.261E-01   -.405E-14 -.175E-13 0.583E-03
   -.172E-13 -.207E-12 0.523E+02   0.296E-13 0.107E-15 -.525E+02   -.913E-18 -.913E-18 -.585E-01   -.479E-14 0.137E-13 0.585E-03
   -.353E-13 -.158E-12 -.466E+03   0.418E-14 0.225E-13 0.462E+03   0.633E-16 0.633E-16 0.406E+01   0.493E-14 -.256E-13 -.216E-04
   -.194E-13 -.110E-12 -.427E+03   -.640E-14 0.609E-15 0.422E+03   0.661E-16 0.661E-16 0.423E+01   0.100E-13 0.186E-13 -.219E-04
   -.192E-13 -.186E-14 -.443E+03   0.150E-13 -.134E-13 0.439E+03   0.680E-16 0.680E-16 0.436E+01   -.483E-14 -.281E-13 -.168E-04
   -.216E-13 0.159E-12 -.425E+03   -.184E-13 -.544E-14 0.420E+03   0.666E-16 0.666E-16 0.427E+01   -.101E-13 0.215E-13 -.204E-04
   0.727E-11 0.421E-11 -.631E+00   0.299E-13 0.120E-12 0.625E-12   0.761E-16 0.132E-15 0.617E+00   0.104E-12 0.420E-13 0.192E-01

 POSITION                                       TOTAL-FORCE (eV/Angst)
      0.00111      0.00501      7.50000         0.059344      0.038782      0.507541
      0.00111      4.04999      7.50000         0.059344     -0.038782      0.507541
      2.82153      0.00501      7.50000        -0.059344      0.038782      0.507541
      2.82153      4.04999      7.50000        -0.059344     -0.038782      0.507541
      0.00111      0.00501     10.32042        -0.007316     -0.027401      0.141457
      0.00111      4.04999     10.32042        -0.007316      0.027401      0.141457
      2.82153      0.00501     10.32042         0.007316     -0.027401      0.141457
      2.82153      4.04999     10.32042         0.007316      0.027401      0.141457
      1.41132      2.02750      8.91021        -0.000000     -0.000000     -0.392900
      1.41132      6.08249      8.91021        -0.000000     -0.000000     -0.288981
      4.23396      2.02750      8.91021        -0.000000     -0.000000     -0.283860
      4.23396      6.08249      8.91021        -0.000000     -0.000000     -0.286390
      1.41132      2.02750     11.73285        -0.000000     -0.000000     -0.295517
      1.41132      6.08249     11.73285        -0.000000     -0.000000     -0.348723
      4.23396      2.02750     11.73285        -0.000000     -0.000000     -0.327793
      4.23396      6.08249     11.73285        -0.000000     -0.000000     -0.371828
    total drift:                                0.000000      0.000000      0.004971

  FREE ENERGIE OF THE ION-ELECTRON SYSTEM (eV)
  free  energy   TOTEN  =       -86.21309360 eV

  energy  without entropy=      -86.19906763  energy(sigma->0) =      -86.20841828

 writing wavefunctions