 vasp.6.5.0 16Dec24 (build Apr 17 2025 17:55:45) complex

 executed on             LinuxIFC date 2025.06.04  15:33:19

 INCAR:
   ISTART = 1
   ICHARG = 11
   PREC = N
   LREAL = .FALSE.
   ENCUT = 520
   ALGO = N
   NELM = 500
   EDIFF = 1E-06
   IBRION = -1
   ISIF = 3
   NSW = 0
   EDIFFG = -0.01
   LAECHG = .T.
   SYMPREC = 1E-6
   NEDOS = 1000
   LORBIT = 10
   ISMEAR = 1
   SIGMA = 0.1

 POTCAR:    PAW_PBE Ga_d 06Jul2010
 POTCAR:    PAW_PBE Ti_sv 26Sep2005
 POTCAR:    PAW_PBE Al 04Jan2001
|           W    W    AA    RRRRR   N    N  II  N    N   GGGG   !!!           |
|           W    W   A  A   R    R  NN   N  II  NN   N  G    G  !!!           |
|           W    W  A    A  R    R  N N  N  II  N N  N  G       !!!           |
|           W WW W  AAAAAA  RRRRR   N  N N  II  N  N N  G  GGG   !            |
|           WW  WW  A    A  R   R   N   NN  II  N   NN  G    G                |
|           W    W  A    A  R    R  N    N  II  N    N   GGGG   !!!           |
|     For optimal performance we recommend to set                             |
|       NCORE = 2 up to number-of-cores-per-socket                            |
|     This setting can greatly improve the performance of VASP for DFT.       |
|     The default, NCORE=1 might be grossly inefficient on modern             |
|     multi-core architectures or massively parallel machines. Do your        |
|     Unfortunately you need to use the default for GW and RPA                |
|     calculations (for HF NCORE is supported but not extensively tested      |
|     yet).                                                                   |

   TITEL  = PAW_PBE Ga_d 06Jul2010
   POMASS =   69.723; ZVAL   =   13.000    mass and valenz
   ENMAX  =  282.691; ENMIN  =  212.018 eV

   TITEL  = PAW_PBE Ti_sv 26Sep2005
   POMASS =   47.880; ZVAL   =   12.000    mass and valenz
   ENMAX  =  274.610; ENMIN  =  205.957 eV

   TITEL  = PAW_PBE Al 04Jan2001
   POMASS =   26.981; ZVAL   =    3.000    mass and valenz
   ENMAX  =  240.300; ENMIN  =  180.225 eV

  PAW_PBE Ga_d 06Jul2010                :
  PAW_PBE Ti_sv 26Sep2005               :
  PAW_PBE Al 04Jan2001                  :

 POSCAR: Ti1 Al1
  positions in direct lattice
  velocities in cartesian coordinates

 exchange-correlation table for PE
   RHO(1)=    0.500       N(1)  =     2000
   RHO(2)=  100.500       N(2)  =     4000

 ion  position               nearest neighbor table
   1  0.000  0.000  0.000-   3 2.80   5 2.80   3 2.80   5 2.80  11 2.88  12 2.88  13 2.88  14 2.88
                            15 2.88  16 2.88   9 2.88  10 2.88
   2  0.000  0.000  0.500-   4 2.80   6 2.80   4 2.80   6 2.80  11 2.85  12 2.85  13 2.85  14 2.85
                            15 2.85  16 2.85   9 2.85  10 2.85
   3  0.000  0.500  0.000-   1 2.80   7 2.80   1 2.80   7 2.80  11 2.87  12 2.87  13 2.87  14 2.87
                            15 2.87  16 2.87   9 2.87  10 2.87
   4  0.000  0.500  0.500-   2 2.80   8 2.80   2 2.80   8 2.80  11 2.85  12 2.85  13 2.85  14 2.85
                            15 2.85  16 2.85   9 2.85  10 2.85
   5  0.500  0.000  0.000-   1 2.80   7 2.80   7 2.80   1 2.80  11 2.87  12 2.87  13 2.87  14 2.87
                            15 2.87  16 2.87   9 2.87  10 2.87
   6  0.500  0.000  0.500-   2 2.80   8 2.80   8 2.80   2 2.80  11 2.85  12 2.85  13 2.85  14 2.85
                            15 2.85  16 2.85   9 2.85  10 2.85
   7  0.500  0.500  0.000-   3 2.80   5 2.80   5 2.80   3 2.80  11 2.87  12 2.87  13 2.87  14 2.87
                            15 2.87  16 2.87   9 2.87  10 2.87
   8  0.500  0.500  0.500-   4 2.80   6 2.80   6 2.80   4 2.80  11 2.84  12 2.84  13 2.84  14 2.84
                            15 2.84  16 2.84   9 2.84  10 2.84
   9  0.251  0.251  0.252-  11 2.79  13 2.79  11 2.81  13 2.81   8 2.84   6 2.85   4 2.85   2 2.85
                             7 2.87   5 2.87   3 2.87   1 2.88
  10  0.251  0.251  0.748-  12 2.79  14 2.79  12 2.81  14 2.81   8 2.84   6 2.85   4 2.85   2 2.85
                             7 2.87   5 2.87   3 2.87   1 2.88
  11  0.251  0.749  0.252-   9 2.79  15 2.79   9 2.81  15 2.81   8 2.84   4 2.85   6 2.85   2 2.85
                             7 2.87   3 2.87   5 2.87   1 2.88
  12  0.251  0.749  0.748-  10 2.79  16 2.79  10 2.81  16 2.81   8 2.84   4 2.85   6 2.85   2 2.85
                             7 2.87   3 2.87   5 2.87   1 2.88
  13  0.749  0.251  0.252-   9 2.79  15 2.79   9 2.81  15 2.81   8 2.84   4 2.85   6 2.85   2 2.85
                             7 2.87   3 2.87   5 2.87   1 2.88
  14  0.749  0.251  0.748-  10 2.79  16 2.79  10 2.81  16 2.81   8 2.84   4 2.85   6 2.85   2 2.85
                             7 2.87   3 2.87   5 2.87   1 2.88
  15  0.749  0.749  0.252-  11 2.79  13 2.79  11 2.81  13 2.81   8 2.84   6 2.85   4 2.85   2 2.85
                             7 2.87   5 2.87   3 2.87   1 2.88
  16  0.749  0.749  0.748-  12 2.79  14 2.79  12 2.81  14 2.81   8 2.84   6 2.85   4 2.85   2 2.85
                             7 2.87   5 2.87   3 2.87   1 2.88

  LATTYP: Found a simple tetragonal cell.
 ALAT       =     5.6069519684
 C/A-ratio  =     1.4699085315

  Lattice vectors:

 A1 = (   5.6069519684,   0.0000000000,   0.0000000000)
 A2 = (   0.0000000000,   5.6069519684,   0.0000000000)
 A3 = (   0.0000000000,   0.0000000000,   8.2417065342)

Analysis of symmetry for initial positions (statically):
 Subroutine PRICEL returns:
 Original cell was already a primitive cell.

 Routine SETGRP: Setting up the symmetry group for a
 simple tetragonal supercell.

 Subroutine GETGRP returns: Found 16 space group operations
 (whereof 16 operations were pure point group operations)
 out of a pool of 16 trial point group operations.

The static configuration has the point symmetry D_4h.

Analysis of symmetry for dynamics (positions and initial velocities):
 Subroutine PRICEL returns:
 Original cell was already a primitive cell.

 Routine SETGRP: Setting up the symmetry group for a
 simple tetragonal supercell.

 Subroutine GETGRP returns: Found 16 space group operations
 (whereof 16 operations were pure point group operations)
 out of a pool of 16 trial point group operations.

The dynamic configuration has the point symmetry D_4h.

 Subroutine INISYM returns: Found 16 space group operations
 (whereof 16 operations are pure point group operations),
 and found     1 'primitive' translations

                                     Primitive cell

  volume of cell :     259.1020

  direct lattice vectors                    reciprocal lattice vectors
     5.606951968  0.000000000  0.000000000     0.178350021  0.000000000  0.000000000
     0.000000000  5.606951968  0.000000000     0.000000000  0.178350021  0.000000000
     0.000000000  0.000000000  8.241706534     0.000000000  0.000000000  0.121334095

  length of vectors
     5.606951968  5.606951968  8.241706534     0.178350021  0.178350021  0.121334095

  position of ions in fractional coordinates (direct lattice)
     0.000000000  0.000000000  0.000000000
     0.000000000  0.000000000  0.500000000
     0.000000000  0.500000000  0.000000000
     0.000000000  0.500000000  0.500000000
     0.500000000  0.000000000  0.000000000
     0.500000000  0.000000000  0.500000000
     0.500000000  0.500000000  0.000000000
     0.500000000  0.500000000  0.500000000
     0.250946882  0.250946882  0.252071225
     0.250946882  0.250946882  0.747928775
     0.250946882  0.749053118  0.252071225
     0.250946882  0.749053118  0.747928775
     0.749053118  0.250946882  0.252071225
     0.749053118  0.250946882  0.747928775
     0.749053118  0.749053118  0.252071225
     0.749053118  0.749053118  0.747928775

  ion indices of the primitive-cell ions
   primitive index   ion index
                 1           1
                 2           2
                 3           3
                 4           4
                 5           5
                 6           6
                 7           7
                 8           8
                 9           9
                10          10
                11          11
                12          12
                13          13
                14          14
                15          15
                16          16

 KPOINTS: K-Spacing Value to Generate K-Mesh: 0.03

Automatic generation of k-mesh.
 Grid dimensions read from file:
 generate k-points for:    6    6    4

 Generating k-lattice:

  Cartesian coordinates                     Fractional coordinates (reciprocal lattice)
     0.029725003  0.000000000  0.000000000     0.166666667  0.000000000  0.000000000
     0.000000000  0.029725003  0.000000000     0.000000000  0.166666667  0.000000000
     0.000000000  0.000000000  0.030333524     0.000000000  0.000000000  0.250000000

  Length of vectors
     0.029725003  0.029725003  0.030333524

  Shift w.r.t. Gamma in fractional coordinates (k-lattice)
     0.000000000  0.000000000  0.000000000

 Subroutine IBZKPT returns following result:

 Found     30 irreducible k-points:

 Following reciprocal coordinates:
            Coordinates               Weight
  0.000000  0.000000  0.000000      1.000000
  0.166667  0.000000  0.000000      4.000000
  0.333333  0.000000  0.000000      4.000000
  0.500000  0.000000  0.000000      2.000000
  0.166667  0.166667  0.000000      4.000000
  0.333333  0.166667  0.000000      8.000000
  0.500000  0.166667  0.000000      4.000000
  0.333333  0.333333  0.000000      4.000000
  0.500000  0.333333  0.000000      4.000000
  0.500000  0.500000  0.000000      1.000000
  0.000000  0.000000  0.250000      2.000000
  0.166667  0.000000  0.250000      8.000000
  0.333333  0.000000  0.250000      8.000000
  0.500000  0.000000  0.250000      4.000000
  0.166667  0.166667  0.250000      8.000000
  0.333333  0.166667  0.250000     16.000000
  0.500000  0.166667  0.250000      8.000000
  0.333333  0.333333  0.250000      8.000000
  0.500000  0.333333  0.250000      8.000000
  0.500000  0.500000  0.250000      2.000000
  0.000000  0.000000  0.500000      1.000000
  0.166667  0.000000  0.500000      4.000000
  0.333333  0.000000  0.500000      4.000000
  0.500000  0.000000  0.500000      2.000000
  0.166667  0.166667  0.500000      4.000000
  0.333333  0.166667  0.500000      8.000000
  0.500000  0.166667  0.500000      4.000000
  0.333333  0.333333  0.500000      4.000000
  0.500000  0.333333  0.500000      4.000000
  0.500000  0.500000  0.500000      1.000000

 Following cartesian coordinates:
            Coordinates               Weight
  0.000000  0.000000  0.000000      1.000000
  0.029725  0.000000  0.000000      4.000000
  0.059450  0.000000  0.000000      4.000000
  0.089175  0.000000  0.000000      2.000000
  0.029725  0.029725  0.000000      4.000000
  0.059450  0.029725  0.000000      8.000000
  0.089175  0.029725  0.000000      4.000000
  0.059450  0.059450  0.000000      4.000000
  0.089175  0.059450  0.000000      4.000000
  0.089175  0.089175  0.000000      1.000000
  0.000000  0.000000  0.030334      2.000000
  0.029725  0.000000  0.030334      8.000000
  0.059450  0.000000  0.030334      8.000000
  0.089175  0.000000  0.030334      4.000000
  0.029725  0.029725  0.030334      8.000000
[...]
 k-point    26 :   0.3333 0.1667 0.5000  plane waves:    6972
 k-point    27 :   0.5000 0.1667 0.5000  plane waves:    6988
 k-point    28 :   0.3333 0.3333 0.5000  plane waves:    6992
 k-point    29 :   0.5000 0.3333 0.5000  plane waves:    6964
 k-point    30 :   0.5000 0.5000 0.5000  plane waves:    6944

 maximum and minimum number of plane-waves per node :      7019     6892

 maximum number of plane-waves:      7019
 maximum index in each direction:
   IXMAX=   10   IYMAX=   10   IZMAX=   15
   IXMIN=  -10   IYMIN=  -10   IZMIN=  -15

 serial   3D FFT for wavefunctions
 parallel 3D FFT for charge:
    minimum data exchange during FFTs selected (reduces bandwidth)

 initial charge density was supplied:
 number of electron     120.9999743 magnetization
 keeping initial charge density in first step

 Maximum index for augmentation-charges          443 (set IRDMAX)

 First call to EWALD:  gamma=   0.278
 Maximum number of real-space cells   3x   3x   2
 Maximum number of reciprocal cells   2x   2x   3

--------------------------------------- Ionic step        1  -------------------------------------------

--------------------------------------- Iteration      1(   1)  ---------------------------------------

 eigenvalue-minimisations  :  7680
 total energy-change (2. order) : 0.8782512E+03  (-0.5937115E+04)
 number of electron     120.9999743 magnetization
 augmentation part      120.9999743 magnetization

 Free energy of the ion-electron system (eV)
  alpha Z        PSCENC =       315.16450473
  Ewald energy   TEWEN  =     -8824.03663466
  -Hartree energ DENC   =     -4134.54971163
  -exchange      EXHF   =         0.00000000
  -V(xc)+E(xc)   XCENC  =       262.32976770
  PAW double counting   =     13513.29586508   -13432.48856087
  entropy T*S    EENTRO =        -0.00137547
  eigenvalues    EBANDS =      -515.19240533
  atomic energy  EATOM  =     13693.72977468
  Solvation  Ediel_sol  =         0.00000000
  free energy    TOTEN  =       878.25122423 eV

  energy without entropy =      878.25259970  energy(sigma->0) =      878.25168272

[...]

 eigenvalue-minimisations  :  8064
 total energy-change (2. order) :-0.8967316E+03  (-0.8553602E+03)
 number of electron     120.9999743 magnetization
 augmentation part      120.9999743 magnetization

[...]

--------------------------------------- Iteration      1(   9)  ---------------------------------------

 eigenvalue-minimisations  : 10432
 total energy-change (2. order) :-0.1175395E-06  (-0.1175933E-06)
 number of electron     120.9999743 magnetization
 augmentation part      120.9999743 magnetization

 Free energy of the ion-electron system (eV)
  alpha Z        PSCENC =       315.16450473
  Ewald energy   TEWEN  =     -8824.03663466
  -Hartree energ DENC   =     -4134.54971163
  -exchange      EXHF   =         0.00000000
  -V(xc)+E(xc)   XCENC  =       262.32976770
  PAW double counting   =     13513.29586508   -13432.48856087
  entropy T*S    EENTRO =        -0.00302156
  eigenvalues    EBANDS =     -1487.28878413
  atomic energy  EATOM  =     13693.72977468
  Solvation  Ediel_sol  =         0.00000000
  free energy    TOTEN  =       -93.84680066 eV

  energy without entropy =      -93.84377910  energy(sigma->0) =      -93.84579347

 average (electrostatic) potential at core
  the test charge radii are     1.0314  1.0397  1.0406
  (the norm of the test charge is              1.0000)
       1 -62.0979       2 -72.2812       3 -72.4980       4 -72.4098       5 -72.4980
       6 -72.4098       7 -72.4458       8 -72.2196       9 -71.5239      10 -71.5239
      11 -71.5239      12 -71.5239      13 -71.5239      14 -71.5239      15 -71.5239
      16 -71.5239

 E-fermi :   8.2669     XC(G=0): -11.0423     alpha+bet :-16.0145

 val. band max:        8.2666505402   @ k =   0.5000   0.3333   0.5000
 cond. band min:       8.2832789811   @ k =   0.1667   0.1667   0.5000
 fundamental gap:      0.0166284409
 Fermi energy:         8.2668907981

 k-point     1 :       0.0000    0.0000    0.0000
  band No.  band energies     occupation
      1     -48.4741      2.00000
      2     -48.4495      2.00000
      3     -48.3858      2.00000
      4     -48.3702      2.00000
      5     -48.3624      2.00000
      6     -48.2265      2.00000
      7     -48.1699      2.00000
      8     -24.8751      2.00000
      9     -24.8751      2.00000
     10     -24.8244      2.00000
     11     -24.8081      2.00000
     12     -24.8081      2.00000
     13     -24.7985      2.00000
     14     -24.7873      2.00000
     15     -24.7810      2.00000
     16     -24.7810      2.00000
     17     -24.7659      2.00000
     18     -24.7330      2.00000
     19     -24.7330      2.00000
     20     -24.7189      2.00000
     21     -24.5886      2.00000
     22     -24.5619      2.00000
     23     -24.3793      2.00000
     24     -24.3793      2.00000
     25     -24.2918      2.00000
     26     -24.2918      2.00000
     27     -24.2303      2.00000
     28     -24.2303      2.00000
     29      -6.5549      2.00000
     30      -6.5544      2.00000
     31      -6.5544      2.00000
     32      -6.5457      2.00000
     33      -6.5104      2.00000
     34      -1.3674      2.00000
     35       0.4073      2.00000
     36       1.4236      2.00000
     37       3.4213      2.00000
     38       3.4213      2.00000
     39       3.4479      2.00000
     40       3.4479      2.00000
     41       3.4601      2.00000
     42       3.7534      2.00000
     43       4.8239      2.00000
     44       5.2319      2.00000
     45       5.2355      2.00000
     46       5.6830      2.00000
     47       6.0750      2.00000
     48       6.1340      2.00000
     49       6.1340      2.00000
     50       6.4232      2.00000
     51       6.4232      2.00000
     52       6.5765      2.00000
     53       6.7524      2.00000
     54       6.7524      2.00000
     55       7.1272      2.00000
     56       7.2815      2.00000
     57       7.4643      2.00000
     58       7.6915      2.00000
     59       7.6915      2.00000
     60       7.7653      2.00000
[...]
    114      18.7378      0.00000
    115      19.1509      0.00000
    116      19.2118      0.00000
    117      19.8390      0.00000
    118      19.8390      0.00000
    119      20.3843      0.00000
    120      20.3843      0.00000
    121      20.7336      0.00000
    122      20.7884      0.00000
    123      20.8336      0.00000
    124      20.8336      0.00000
    125      20.8528      0.00000
    126      21.3683      0.00000
    127      21.4129      0.00000
    128      21.4129      0.00000

[...]

 k-point    30 :       0.5000    0.5000    0.5000
  band No.  band energies     occupation
      1     -48.4503      2.00000
      2     -48.4503      2.00000
      3     -48.3937      2.00000
      4     -48.3632      2.00000
      5     -48.3632      2.00000
      6     -48.2376      2.00000
      7     -48.1814      2.00000
      8     -24.7993      2.00000
      9     -24.7993      2.00000
     10     -24.7987      2.00000
     11     -24.7795      2.00000
     12     -24.7685      2.00000
     13     -24.7685      2.00000
     14     -24.7412      2.00000
     15     -24.6339      2.00000
     16     -24.6339      2.00000
     17     -24.6280      2.00000
     18     -24.6128      2.00000
     19     -24.5961      2.00000
     20     -24.5951      2.00000
     21     -24.5904      2.00000
     22     -24.5799      2.00000
     23     -24.5752      2.00000
     24     -24.5736      2.00000
     25     -24.4881      2.00000
     26     -24.4881      2.00000
     27     -24.4192      2.00000
     28     -24.4192      2.00000
     29      -6.5530      2.00000
     30      -6.5530      2.00000
     31      -6.5493      2.00000
     32      -6.5282      2.00000
     33      -6.5079      2.00000
     34       0.1914      2.00000
     35       1.5834      2.00000
     36       1.6691      2.00000
     37       1.6691      2.00000
     38       1.8644      2.00000
     39       1.9125      2.00000
     40       1.9373      2.00000
     41       1.9373      2.00000
     42       4.6650      2.00000
     43       5.4722      2.00000
     44       5.4722      2.00000
     45       5.6161      2.00000
     46       6.0950      2.00000
     47       6.2737      2.00000
     48       6.2737      2.00000
     49       6.3314      2.00000
     50       7.5580      2.00000
     51       7.5580      2.00000
     52       7.8573      2.00000
     53       7.8596      2.00000
     54       7.8985      2.00000
     55       8.0482      2.00836
     56       8.0482      2.00836
     57       8.1083      2.04739
     58       8.1535      2.06803
     59       8.1535      2.06803
     60       8.2135      1.77622
[...]
    114      17.8955      0.00000
    115      18.1025      0.00000
    116      18.1025      0.00000
    117      18.6285      0.00000
    118      18.6285      0.00000
    119      18.6653      0.00000
    120      18.6653      0.00000
    121      18.6661      0.00000
    122      18.6997      0.00000
    123      18.7096      0.00000
    124      18.7274      0.00000
    125      20.4050      0.00000
    126      20.7226      0.00000
    127      20.7228      0.00000
    128      20.8329      0.00000

 soft charge-density along one line, spin component           1
         0         1         2         3         4         5         6         7         8         9
 total charge-density along one line

------------------------ aborting loop because EDIFF is reached ----------------------------------------

 total charge

# of ion       s       p       d       tot
    1        0.937   0.748   9.979  11.664
    2        2.203   6.119   1.969  10.291
    3        2.182   6.098   1.982  10.262
    4        2.204   6.114   1.966  10.284
    5        2.182   6.098   1.982  10.262
    6        2.204   6.114   1.966  10.284
    7        2.209   6.133   1.924  10.267
    8        2.206   6.121   1.974  10.301
    9        0.411   0.409   0.000   0.820
   10        0.411   0.409   0.000   0.820
   11        0.411   0.409   0.000   0.820
   12        0.411   0.409   0.000   0.820
   13        0.411   0.409   0.000   0.820
   14        0.411   0.409   0.000   0.820
   15        0.411   0.409   0.000   0.820
   16        0.411   0.409   0.000   0.820
tot         19.617  46.817  23.740  90.174

  FORCE on cell =-STRESS in cart. coord.  units (eV):
  Direction    XX          YY          ZZ          XY          YZ          ZX
  Alpha Z   315.16450   315.16450   315.16450
  Ewald   -2299.74450 -2299.74450 -4224.56271     0.00000    -0.00000    -0.00000
  Hartree  1935.95179  1935.95179   263.50870    -0.00000    -0.00000    -0.00000
  E(xc)    -591.74318  -591.74318  -593.00944    -0.00000     0.00000    -0.00000
  Local   -1262.13638 -1262.13638  2360.09641    -0.00000     0.00000    -0.00000
  n-local   -70.56214   -92.02708   -43.43958    -2.10391     0.82450     1.25801
  augment   553.25912   553.25912   537.72179     0.00000    -0.00000     0.00000
  Kinetic  1417.16670  1444.50111  1385.01437     0.60975    -1.27565    -0.70114
  Fock        0.00000     0.00000     0.00000     0.00000     0.00000     0.00000
  Total       0.29065     0.29065     0.49405     0.00000     0.00000     0.00000
  in kB       1.79723     1.79723     3.05498     0.00000     0.00000     0.00000

 VOLUME and BASIS-vectors are now :
  energy-cutoff  :      520.00
  volume of cell :      259.10
      direct lattice vectors                 reciprocal lattice vectors
     5.606951968  0.000000000  0.000000000     0.178350021  0.000000000  0.000000000
     0.000000000  5.606951968  0.000000000     0.000000000  0.178350021  0.000000000
     0.000000000  0.000000000  8.241706534     0.000000000  0.000000000  0.121334095

  length of vectors
     5.606951968  5.606951968  8.241706534     0.178350021  0.178350021  0.121334095

 FORCES acting on ions
    electron-ion (+dipol)            ewald-force                    non-local-force                 convergence-correction
   0.382E-14 0.178E-13 -.724E-13   0.380E-13 0.613E-14 -.292E-13   0.000E+00 0.000E+00 0.000E+00   0.371E-12 -.722E-12 -.352E-12
   0.198E-14 0.246E-14 0.105E-11   -.332E-13 -.935E-14 0.512E-13   0.000E+00 0.000E+00 0.000E+00   -.498E-12 0.821E-12 -.257E-12
   -.172E-14 0.383E-12 -.443E-13   -.290E-13 -.624E-14 -.274E-13   0.000E+00 0.000E+00 0.000E+00   0.992E-12 0.618E-12 -.571E-12
   -.994E-14 0.389E-12 0.106E-11   -.452E-13 -.144E-13 0.195E-13   0.000E+00 0.000E+00 0.000E+00   -.115E-13 -.699E-12 0.143E-12
   0.375E-12 0.180E-14 -.688E-11   -.635E-14 0.635E-14 -.195E-13   0.000E+00 0.000E+00 0.000E+00   -.329E-12 -.792E-12 -.284E-12
   0.383E-12 0.368E-14 0.434E-11   0.292E-13 0.240E-14 0.274E-13   0.000E+00 0.000E+00 0.000E+00   0.220E-12 0.721E-12 -.397E-12
   0.386E-12 0.404E-12 -.210E-11   -.263E-13 -.182E-13 -.274E-13   0.000E+00 0.000E+00 0.000E+00   -.105E-11 0.765E-12 -.676E-12
   0.395E-12 0.421E-12 0.259E-11   0.957E-14 -.103E-13 0.433E-13   0.000E+00 0.000E+00 0.000E+00   0.584E-13 -.681E-12 -.191E-12
   -.633E+00 -.633E+00 0.481E+00   0.109E+01 0.109E+01 0.671E+00   -.468E+00 -.468E+00 -.113E+01   0.645E-02 0.645E-02 -.114E-01
   -.633E+00 -.633E+00 -.481E+00   0.109E+01 0.109E+01 -.671E+00   -.468E+00 -.468E+00 0.113E+01   0.645E-02 0.645E-02 0.114E-01
   -.633E+00 0.633E+00 0.481E+00   0.109E+01 -.109E+01 0.671E+00   -.468E+00 0.468E+00 -.113E+01   0.645E-02 -.645E-02 -.114E-01
   -.633E+00 0.633E+00 -.481E+00   0.109E+01 -.109E+01 -.671E+00   -.468E+00 0.468E+00 0.113E+01   0.645E-02 -.645E-02 0.114E-01
   0.633E+00 -.633E+00 0.481E+00   -.109E+01 0.109E+01 0.671E+00   0.468E+00 -.468E+00 -.113E+01   -.645E-02 0.645E-02 -.114E-01
   0.633E+00 -.633E+00 -.481E+00   -.109E+01 0.109E+01 -.671E+00   0.468E+00 -.468E+00 0.113E+01   -.645E-02 0.645E-02 0.114E-01
   0.633E+00 0.633E+00 0.481E+00   -.109E+01 -.109E+01 0.671E+00   0.468E+00 0.468E+00 -.113E+01   -.645E-02 -.645E-02 -.114E-01
   0.633E+00 0.633E+00 -.481E+00   -.109E+01 -.109E+01 -.671E+00   0.468E+00 0.468E+00 0.113E+01   -.645E-02 -.645E-02 0.114E-01
   0.145E-11 0.125E-11 0.444E-11   0.000E+00 -.777E-14 -.178E-14   -.222E-15 0.000E+00 -.666E-15   -.249E-12 0.396E-13 -.234E-11

 POSITION                                       TOTAL-FORCE (eV/Angst)
      0.00000      0.00000      0.00000         0.000000      0.000000      0.000000
      0.00000      0.00000      4.12085         0.000000      0.000000      0.000000
      0.00000      2.80348      0.00000         0.000000      0.000000      0.000000
      0.00000      2.80348      4.12085         0.000000      0.000000      0.000000
      2.80348      0.00000      0.00000         0.000000      0.000000      0.000000
      2.80348      0.00000      4.12085         0.000000      0.000000      0.000000
      2.80348      2.80348      0.00000         0.000000      0.000000      0.000000
      2.80348      2.80348      4.12085         0.000000      0.000000      0.000000
      1.40705      1.40705      2.07750        -0.000940     -0.000940      0.008229
      1.40705      1.40705      6.16421        -0.000940     -0.000940     -0.008229
      1.40705      4.19990      2.07750        -0.000940      0.000940      0.008229
      1.40705      4.19990      6.16421        -0.000940      0.000940     -0.008229
      4.19990      1.40705      2.07750         0.000940     -0.000940      0.008229
      4.19990      1.40705      6.16421         0.000940     -0.000940     -0.008229
      4.19990      4.19990      2.07750         0.000940      0.000940      0.008229
      4.19990      4.19990      6.16421         0.000940      0.000940     -0.008229
    total drift:                                0.000000      0.000000      0.000000

  FREE ENERGIE OF THE ION-ELECTRON SYSTEM (eV)
  free  energy   TOTEN  =       -93.84680066 eV

  energy  without entropy=      -93.84377910  energy(sigma->0) =      -93.84579347

 writing wavefunctions

 total charge

# of ion       s       p       d       tot
    1        0.937   0.748   9.979  11.664
    2        2.203   6.119   1.969  10.291
    3        2.182   6.098   1.982  10.262
    4        2.204   6.114   1.966  10.284
    5        2.182   6.098   1.982  10.262
    6        2.204   6.114   1.966  10.284
    7        2.209   6.133   1.924  10.267
    8        2.206   6.121   1.974  10.301
    9        0.411   0.409   0.000   0.820
   10        0.411   0.409   0.000   0.820
   11        0.411   0.409   0.000   0.820
   12        0.411   0.409   0.000   0.820
   13        0.411   0.409   0.000   0.820
   14        0.411   0.409   0.000   0.820
   15        0.411   0.409   0.000   0.820
   16        0.411   0.409   0.000   0.820
tot         19.617  46.817  23.740  90.174