 vasp.6.5.0 16Dec24 (build Apr 17 2025 17:55:45) complex

 executed on             LinuxIFC date 2025.06.04  14:51:46

 INCAR:
   ISTART = 1
   ICHARG = 11
   PREC = N
   LREAL = .FALSE.
   ENCUT = 520
   ALGO = N
   NELM = 500
   EDIFF = 1E-06
   IBRION = -1
   ISIF = 3
   NSW = 0
   EDIFFG = -0.01
   LAECHG = .T.
   SYMPREC = 1E-6
   NEDOS = 1000
   LORBIT = 10
   ISMEAR = 1
   SIGMA = 0.1

 POTCAR:    PAW_PBE Ti_sv 26Sep2005
 POTCAR:    PAW_PBE Al 04Jan2001
|           W    W    AA    RRRRR   N    N  II  N    N   GGGG   !!!           |
|           W    W   A  A   R    R  NN   N  II  NN   N  G    G  !!!           |
|           W    W  A    A  R    R  N N  N  II  N N  N  G       !!!           |
|           W WW W  AAAAAA  RRRRR   N  N N  II  N  N N  G  GGG   !            |
|           WW  WW  A    A  R   R   N   NN  II  N   NN  G    G                |
|           W    W  A    A  R    R  N    N  II  N    N   GGGG   !!!           |
|     For optimal performance we recommend to set                             |
|       NCORE = 2 up to number-of-cores-per-socket                            |
|     This setting can greatly improve the performance of VASP for DFT.       |
|     The default, NCORE=1 might be grossly inefficient on modern             |
|     multi-core architectures or massively parallel machines. Do your        |
|     Unfortunately you need to use the default for GW and RPA                |
|     calculations (for HF NCORE is supported but not extensively tested      |
|     yet).                                                                   |

   TITEL  = PAW_PBE Ti_sv 26Sep2005
   POMASS =   47.880; ZVAL   =   12.000    mass and valenz
   ENMAX  =  274.610; ENMIN  =  205.957 eV

   TITEL  = PAW_PBE Al 04Jan2001
   POMASS =   26.981; ZVAL   =    3.000    mass and valenz
   ENMAX  =  240.300; ENMIN  =  180.225 eV

  PAW_PBE Ti_sv 26Sep2005               :
  PAW_PBE Al 04Jan2001                  :

 POSCAR: Ti1 Al1
  positions in direct lattice
  velocities in cartesian coordinates

 exchange-correlation table for PE
   RHO(1)=    0.500       N(1)  =     2000
   RHO(2)=  100.500       N(2)  =     4000

 ion  position               nearest neighbor table
   1  0.000  0.000  0.000-   3 2.83   5 2.83   3 2.83   5 2.83  11 2.85  12 2.85  13 2.85  14 2.85
                            15 2.85  16 2.85   9 2.85  10 2.85
   2  0.000  0.000  0.500-   4 2.83   6 2.83   4 2.83   6 2.83  11 2.85  12 2.85  13 2.85  14 2.85
                            15 2.85  16 2.85   9 2.85  10 2.85
   3  0.000  0.500  0.000-   1 2.83   7 2.83   1 2.83   7 2.83  11 2.85  12 2.85  13 2.85  14 2.85
                            15 2.85  16 2.85   9 2.85  10 2.85
   4  0.000  0.500  0.500-   2 2.83   8 2.83   2 2.83   8 2.83  11 2.85  12 2.85  13 2.85  14 2.85
                            15 2.85  16 2.85   9 2.85  10 2.85
   5  0.500  0.000  0.000-   1 2.83   7 2.83   7 2.83   1 2.83  11 2.85  12 2.85  13 2.85  14 2.85
                            15 2.85  16 2.85   9 2.85  10 2.85
   6  0.500  0.000  0.500-   2 2.83   8 2.83   8 2.83   2 2.83  11 2.85  12 2.85  13 2.85  14 2.85
                            15 2.85  16 2.85   9 2.85  10 2.85
   7  0.500  0.500  0.000-   3 2.83   5 2.83   5 2.83   3 2.83  11 2.85  12 2.85  13 2.85  14 2.85
                            15 2.85  16 2.85   9 2.85  10 2.85
   8  0.500  0.500  0.500-   4 2.83   6 2.83   6 2.83   4 2.83  11 2.85  12 2.85  13 2.85  14 2.85
                            15 2.85  16 2.85   9 2.85  10 2.85
   9  0.250  0.250  0.250-  11 2.83  13 2.83  11 2.83  13 2.83   5 2.85   6 2.85   7 2.85   8 2.85
                             1 2.85   2 2.85   3 2.85   4 2.85
  10  0.250  0.250  0.750-  12 2.83  14 2.83  12 2.83  14 2.83   5 2.85   6 2.85   7 2.85   8 2.85
                             1 2.85   2 2.85   3 2.85   4 2.85
  11  0.250  0.750  0.250-   9 2.83  15 2.83   9 2.83  15 2.83   5 2.85   6 2.85   7 2.85   8 2.85
                             1 2.85   2 2.85   3 2.85   4 2.85
  12  0.250  0.750  0.750-  10 2.83  16 2.83  10 2.83  16 2.83   5 2.85   6 2.85   7 2.85   8 2.85
                             1 2.85   2 2.85   3 2.85   4 2.85
  13  0.750  0.250  0.250-   9 2.83  15 2.83  15 2.83   9 2.83   5 2.85   6 2.85   7 2.85   8 2.85
                             1 2.85   2 2.85   3 2.85   4 2.85
  14  0.750  0.250  0.750-  10 2.83  16 2.83  16 2.83  10 2.83   5 2.85   6 2.85   7 2.85   8 2.85
                             1 2.85   2 2.85   3 2.85   4 2.85
  15  0.750  0.750  0.250-  11 2.83  13 2.83  13 2.83  11 2.83   5 2.85   6 2.85   7 2.85   8 2.85
                             1 2.85   2 2.85   3 2.85   4 2.85
  16  0.750  0.750  0.750-  12 2.83  14 2.83  14 2.83  12 2.83   5 2.85   6 2.85   7 2.85   8 2.85
                             1 2.85   2 2.85   3 2.85   4 2.85

  LATTYP: Found a simple tetragonal cell.
 ALAT       =     5.6506817720
 C/A-ratio  =     1.4378139695

  Lattice vectors:

 A1 = (   5.6506817720,   0.0000000000,   0.0000000000)
 A2 = (   0.0000000000,   5.6506817720,   0.0000000000)
 A3 = (   0.0000000000,   0.0000000000,   8.1246291889)

Analysis of symmetry for initial positions (statically):
 Subroutine PRICEL returns following result:

[...]

   8 primitive cells build up your supercell.

 Routine SETGRP: Setting up the symmetry group for a
 simple tetragonal supercell.

 Subroutine GETGRP returns: Found 16 space group operations
 (whereof 16 operations were pure point group operations)
 out of a pool of 16 trial point group operations.

The static configuration has the point symmetry D_4h.

Analysis of symmetry for dynamics (positions and initial velocities):
 Subroutine PRICEL returns following result:

  LATTYP: Found a simple tetragonal cell.
 ALAT       =     2.8253408860
 C/A-ratio  =     1.4378139695

  Lattice vectors:

 A1 = (   2.8253408860,   0.0000000000,   0.0000000000)
 A2 = (   0.0000000000,   2.8253408860,   0.0000000000)
 A3 = (   0.0000000000,   0.0000000000,   4.0623145945)

   8 primitive cells build up your supercell.

 Routine SETGRP: Setting up the symmetry group for a
 simple tetragonal supercell.

 Subroutine GETGRP returns: Found 16 space group operations
 (whereof 16 operations were pure point group operations)
 out of a pool of 16 trial point group operations.

The dynamic configuration has the point symmetry D_4h.

 Subroutine INISYM returns: Found 16 space group operations
 (whereof 16 operations are pure point group operations),
 and found     8 'primitive' translations

                                     Primitive cell

  volume of cell :      32.4276

  direct lattice vectors                    reciprocal lattice vectors
     2.825340886  0.000000000  0.000000000     0.353939592  0.000000000  0.000000000
     0.000000000  2.825340886  0.000000000     0.000000000  0.353939592  0.000000000
     0.000000000  0.000000000  4.062314594     0.000000000  0.000000000  0.246165081

  length of vectors
     2.825340886  2.825340886  4.062314594     0.353939592  0.353939592  0.246165081

  position of ions in fractional coordinates (direct lattice)
     0.000000000  0.000000000  0.000000000
     0.500000000  0.500000000  0.500000000

  ion indices of the primitive-cell ions
   primitive index   ion index
                 1           1
                 2           9

 KPOINTS: K-Spacing Value to Generate K-Mesh: 0.02

Automatic generation of k-mesh.
 Grid dimensions read from file:
 generate k-points for:    9    9    6

 Generating k-lattice:

  Cartesian coordinates                     Fractional coordinates (reciprocal lattice)
     0.019663311  0.000000000  0.000000000     0.111111111  0.000000000  0.000000000
     0.000000000  0.019663311  0.000000000     0.000000000  0.111111111  0.000000000
     0.000000000  0.000000000  0.020513757     0.000000000  0.000000000  0.166666667

  Length of vectors
     0.019663311  0.019663311  0.020513757

  Shift w.r.t. Gamma in fractional coordinates (k-lattice)
     0.000000000  0.000000000  0.000000000

 Subroutine IBZKPT returns following result:

 Found     60 irreducible k-points:

 Following reciprocal coordinates:
            Coordinates               Weight
  0.000000  0.000000  0.000000      1.000000
  0.111111  0.000000  0.000000      4.000000
  0.222222  0.000000  0.000000      4.000000
  0.333333  0.000000  0.000000      4.000000
  0.444444  0.000000  0.000000      4.000000
  0.111111  0.111111  0.000000      4.000000
  0.222222  0.111111  0.000000      8.000000
  0.333333  0.111111  0.000000      8.000000
  0.444444  0.111111  0.000000      8.000000
  0.222222  0.222222  0.000000      4.000000
  0.333333  0.222222  0.000000      8.000000
  0.444444  0.222222  0.000000      8.000000
  0.333333  0.333333  0.000000      4.000000
  0.444444  0.333333  0.000000      8.000000
  0.444444  0.444444  0.000000      4.000000
  0.000000  0.000000  0.166667      2.000000
  0.111111  0.000000  0.166667      8.000000
  0.222222  0.000000  0.166667      8.000000
  0.333333  0.000000  0.166667      8.000000
  0.444444  0.000000  0.166667      8.000000
  0.111111  0.111111  0.166667      8.000000
  0.222222  0.111111  0.166667     16.000000
  0.333333  0.111111  0.166667     16.000000
  0.444444  0.111111  0.166667     16.000000
  0.222222  0.222222  0.166667      8.000000
  0.333333  0.222222  0.166667     16.000000
  0.444444  0.222222  0.166667     16.000000
  0.333333  0.333333  0.166667      8.000000
  0.444444  0.333333  0.166667     16.000000
  0.444444  0.444444  0.166667      8.000000
  0.000000  0.000000  0.333333      2.000000
  0.111111  0.000000  0.333333      8.000000
  0.222222  0.000000  0.333333      8.000000
  0.333333  0.000000  0.333333      8.000000
  0.444444  0.000000  0.333333      8.000000
  0.111111  0.111111  0.333333      8.000000
  0.222222  0.111111  0.333333     16.000000
  0.333333  0.111111  0.333333     16.000000
  0.444444  0.111111  0.333333     16.000000
  0.222222  0.222222  0.333333      8.000000
  0.333333  0.222222  0.333333     16.000000
  0.444444  0.222222  0.333333     16.000000
  0.333333  0.333333  0.333333      8.000000
  0.444444  0.333333  0.333333     16.000000
  0.444444  0.444444  0.333333      8.000000
  0.000000  0.000000  0.500000      1.000000
  0.111111  0.000000  0.500000      4.000000
  0.222222  0.000000  0.500000      4.000000
  0.333333  0.000000  0.500000      4.000000
  0.444444  0.000000  0.500000      4.000000
  0.111111  0.111111  0.500000      4.000000
  0.222222  0.111111  0.500000      8.000000
  0.333333  0.111111  0.500000      8.000000
  0.444444  0.111111  0.500000      8.000000
  0.222222  0.222222  0.500000      4.000000
  0.333333  0.222222  0.500000      8.000000
  0.444444  0.222222  0.500000      8.000000
  0.333333  0.333333  0.500000      4.000000
  0.444444  0.333333  0.500000      8.000000
  0.444444  0.444444  0.500000      4.000000

 Following cartesian coordinates:
            Coordinates               Weight
  0.000000  0.000000  0.000000      1.000000
  0.019663  0.000000  0.000000      4.000000
  0.039327  0.000000  0.000000      4.000000
  0.058990  0.000000  0.000000      4.000000
  0.078653  0.000000  0.000000      4.000000
  0.019663  0.019663  0.000000      4.000000
[...]
 k-point    55 :   0.2222 0.2222 0.5000  plane waves:    6986
 k-point    56 :   0.3333 0.2222 0.5000  plane waves:    6992
 k-point    57 :   0.4444 0.2222 0.5000  plane waves:    6986
 k-point    58 :   0.3333 0.3333 0.5000  plane waves:    7014
 k-point    59 :   0.4444 0.3333 0.5000  plane waves:    7000
 k-point    60 :   0.4444 0.4444 0.5000  plane waves:    6970

 maximum and minimum number of plane-waves per node :      7014     6946

 maximum number of plane-waves:      7014
 maximum index in each direction:
   IXMAX=   10   IYMAX=   10   IZMAX=   15
   IXMIN=  -10   IYMIN=  -10   IZMIN=  -15

 serial   3D FFT for wavefunctions
 parallel 3D FFT for charge:
    minimum data exchange during FFTs selected (reduces bandwidth)

 initial charge density was supplied:
 number of electron     119.9999793 magnetization
 keeping initial charge density in first step

 Maximum index for augmentation-charges          455 (set IRDMAX)

 First call to EWALD:  gamma=   0.278
 Maximum number of real-space cells   3x   3x   2
 Maximum number of reciprocal cells   2x   2x   3

--------------------------------------- Ionic step        1  -------------------------------------------

--------------------------------------- Iteration      1(   1)  ---------------------------------------

 eigenvalue-minimisations  : 15360
 total energy-change (2. order) : 0.9244464E+03  (-0.5971888E+04)
 number of electron     119.9999793 magnetization
 augmentation part      119.9999793 magnetization

 Free energy of the ion-electron system (eV)
  alpha Z        PSCENC =       302.45033193
  Ewald energy   TEWEN  =     -8685.12768637
  -Hartree energ DENC   =     -3930.14505695
  -exchange      EXHF   =         0.00000000
  -V(xc)+E(xc)   XCENC  =       279.29652063
  PAW double counting   =     13277.44161293   -12838.39576300
  entropy T*S    EENTRO =        -0.00564827
  eigenvalues    EBANDS =      -614.05551229
  atomic energy  EATOM  =     13132.98755513
  Solvation  Ediel_sol  =         0.00000000
  free energy    TOTEN  =       924.44635373 eV

  energy without entropy =      924.45200201  energy(sigma->0) =      924.44823649

[...]

 eigenvalue-minimisations  : 16128
 total energy-change (2. order) :-0.9472785E+03  (-0.9059829E+03)
 number of electron     119.9999793 magnetization
 augmentation part      119.9999793 magnetization

[...]

--------------------------------------- Iteration      1(   9)  ---------------------------------------

 eigenvalue-minimisations  : 21184
 total energy-change (2. order) :-0.1035060E-06  (-0.1039517E-06)
 number of electron     119.9999793 magnetization
 augmentation part      119.9999793 magnetization

 Free energy of the ion-electron system (eV)
  alpha Z        PSCENC =       302.45033193
  Ewald energy   TEWEN  =     -8685.12768637
  -Hartree energ DENC   =     -3930.14505695
  -exchange      EXHF   =         0.00000000
  -V(xc)+E(xc)   XCENC  =       279.29652063
  PAW double counting   =     13277.44161293   -12838.39576300
  entropy T*S    EENTRO =        -0.00088990
  eigenvalues    EBANDS =     -1637.65541433
  atomic energy  EATOM  =     13132.98755513
  Solvation  Ediel_sol  =         0.00000000
  free energy    TOTEN  =       -99.14878994 eV

  energy without entropy =      -99.14790004  energy(sigma->0) =      -99.14849330

 average (electrostatic) potential at core
  the test charge radii are     1.0397  1.0406
  (the norm of the test charge is              1.0000)
       1 -72.2916       2 -72.2916       3 -72.2916       4 -72.2916       5 -72.2916
       6 -72.2916       7 -72.2916       8 -72.2916       9 -71.3282      10 -71.3282
      11 -71.3282      12 -71.3282      13 -71.3282      14 -71.3282      15 -71.3282
      16 -71.3282

 E-fermi :   8.3272     XC(G=0): -11.0388     alpha+bet :-16.2322

 val. band max:        8.3239171952   @ k =   0.2222   0.0000   0.0000
 cond. band min:       8.3275835338   @ k =   0.2222   0.0000   0.1667
 fundamental gap:      0.0036663386
 Fermi energy:         8.3271755982

 k-point     1 :       0.0000    0.0000    0.0000
  band No.  band energies     occupation
      1     -48.3014      2.00000
      2     -48.3008      2.00000
      3     -48.2439      2.00000
      4     -48.2439      2.00000
      5     -48.2434      2.00000
      6     -48.2434      2.00000
      7     -48.1885      2.00000
      8     -48.1881      2.00000
      9     -24.7265      2.00000
     10     -24.7265      2.00000
     11     -24.7238      2.00000
     12     -24.7238      2.00000
     13     -24.7143      2.00000
     14     -24.6970      2.00000
     15     -24.6595      2.00000
     16     -24.6595      2.00000
     17     -24.6581      2.00000
     18     -24.6581      2.00000
     19     -24.6523      2.00000
     20     -24.6523      2.00000
     21     -24.6398      2.00000
     22     -24.6398      2.00000
     23     -24.5976      2.00000
     24     -24.5869      2.00000
     25     -24.2551      2.00000
     26     -24.2551      2.00000
     27     -24.2546      2.00000
     28     -24.2546      2.00000
     29     -24.2136      2.00000
     30     -24.2136      2.00000
     31     -24.2130      2.00000
     32     -24.2130      2.00000
     33      -0.7127      2.00000
     34       0.7641      2.00000
     35       3.0640      2.00000
     36       3.4100      2.00000
     37       3.4100      2.00000
     38       3.7561      2.00000
     39       3.7561      2.00000
     40       3.7936      2.00000
     41       3.7936      2.00000
     42       5.1439      2.00000
     43       5.3922      2.00000
     44       5.3922      2.00000
     45       5.8284      2.00000
     46       6.0606      2.00000
     47       6.0606      2.00000
     48       6.4711      2.00000
     49       6.6386      2.00000
     50       6.6386      2.00000
     51       7.1276      2.00000
     52       7.1276      2.00000
     53       7.1736      2.00000
     54       7.1736      2.00000
     55       7.4811      2.00000
     56       7.6516      2.00000
     57       7.8495      2.00000
     58       7.8495      2.00000
     59       7.9146      2.00000
     60       7.9888      2.00002
[...]
    114      18.6683      0.00000
    115      19.0549      0.00000
    116      19.0549      0.00000
    117      19.3889      0.00000
    118      19.3889      0.00000
    119      19.9484      0.00000
    120      20.5528      0.00000
    121      20.5528      0.00000
    122      20.5732      0.00000
    123      20.5732      0.00000
    124      20.9727      0.00000
    125      20.9766      0.00000
    126      20.9766      0.00000
    127      21.0255      0.00000
    128      21.0256      0.00000

[...]

 k-point    60 :       0.4444    0.4444    0.5000
  band No.  band energies     occupation
      1     -48.2542      2.00000
      2     -48.2542      2.00000
      3     -48.2443      2.00000
      4     -48.2443      2.00000
      5     -48.2443      2.00000
      6     -48.2443      2.00000
      7     -48.2346      2.00000
      8     -48.2346      2.00000
      9     -24.6576      2.00000
     10     -24.6576      2.00000
     11     -24.6476      2.00000
     12     -24.6476      2.00000
     13     -24.6476      2.00000
     14     -24.6476      2.00000
     15     -24.6379      2.00000
     16     -24.6379      2.00000
     17     -24.5113      2.00000
     18     -24.5113      2.00000
     19     -24.5113      2.00000
     20     -24.5113      2.00000
     21     -24.5077      2.00000
     22     -24.5077      2.00000
     23     -24.4942      2.00000
     24     -24.4942      2.00000
     25     -24.4377      2.00000
     26     -24.4377      2.00000
     27     -24.4240      2.00000
     28     -24.4240      2.00000
     29     -24.4213      2.00000
     30     -24.4213      2.00000
     31     -24.4213      2.00000
     32     -24.4213      2.00000
     33       1.5704      2.00000
     34       1.5704      2.00000
     35       2.0281      2.00000
     36       2.0281      2.00000
     37       2.0281      2.00000
     38       2.0281      2.00000
     39       2.4725      2.00000
     40       2.4725      2.00000
     41       6.0299      2.00000
     42       6.0299      2.00000
     43       6.2606      2.00000
     44       6.2606      2.00000
     45       6.2606      2.00000
     46       6.2606      2.00000
     47       6.4189      2.00000
     48       6.4189      2.00000
     49       7.6812      2.00000
     50       7.6812      2.00000
     51       7.6812      2.00000
     52       7.6812      2.00000
     53       7.7012      2.00000
     54       7.7012      2.00000
     55       8.0625      2.00117
     56       8.0625      2.00117
     57       8.2160      2.06634
     58       8.2160      2.06634
     59       8.3811      0.21801
     60       8.3811      0.21801
[...]
    114      17.9446      0.00000
    115      17.9446      0.00000
    116      17.9446      0.00000
    117      18.3865      0.00000
    118      18.3865      0.00000
    119      18.4550      0.00000
    120      18.4550      0.00000
    121      19.0519      0.00000
    122      19.0519      0.00000
    123      19.2031      0.00000
    124      19.2031      0.00000
    125      19.5811      0.00000
    126      19.5811      0.00000
    127      19.5811      0.00000
    128      19.5811      0.00000

 soft charge-density along one line, spin component           1
         0         1         2         3         4         5         6         7         8         9
 total charge-density along one line

------------------------ aborting loop because EDIFF is reached ----------------------------------------

 total charge

# of ion       s       p       d       tot
    1        2.201   6.117   1.959  10.277
    2        2.201   6.117   1.959  10.277
    3        2.201   6.117   1.959  10.277
    4        2.201   6.117   1.959  10.277
    5        2.201   6.117   1.959  10.277
    6        2.201   6.117   1.959  10.277
    7        2.201   6.117   1.959  10.277
    8        2.201   6.117   1.959  10.277
    9        0.411   0.417   0.000   0.828
   10        0.411   0.417   0.000   0.828
   11        0.411   0.417   0.000   0.828
   12        0.411   0.417   0.000   0.828
   13        0.411   0.417   0.000   0.828
   14        0.411   0.417   0.000   0.828
   15        0.411   0.417   0.000   0.828
   16        0.411   0.417   0.000   0.828
tot         20.902  52.270  15.669  88.841

  FORCE on cell =-STRESS in cart. coord.  units (eV):
  Direction    XX          YY          ZZ          XY          YZ          ZX
  Alpha Z   302.45033   302.45033   302.45033
  Ewald   -2316.54182 -2316.54182 -4052.05886    -0.00000    -0.00000    -0.00000
  Hartree  1817.93749  1817.93749   295.41612    -0.00000    -0.00000    -0.00000
  E(xc)    -576.55660  -576.55660  -578.26203    -0.00000    -0.00000     0.00000
  Local   -1141.86681 -1141.86681  2155.40154    -0.00000     0.00000    -0.00000
  n-local  -113.29879  -148.85427   -75.89631    -4.03061     1.10887     1.90646
  augment   494.05048   494.05048   471.13592    -0.00000     0.00000     0.00000
  Kinetic  1532.46074  1571.33779  1483.05525     2.24231    -2.77326    -1.42538
  Fock        0.00000     0.00000     0.00000     0.00000     0.00000     0.00000
  Total       0.29580     0.29580     1.24196     0.00000     0.00000    -0.00000
  in kB       1.82688     1.82688     7.67033     0.00000     0.00000    -0.00000

 VOLUME and BASIS-vectors are now :
  energy-cutoff  :      520.00
  volume of cell :      259.42
      direct lattice vectors                 reciprocal lattice vectors
     5.650681772  0.000000000  0.000000000     0.176969796  0.000000000  0.000000000
     0.000000000  5.650681772  0.000000000     0.000000000  0.176969796  0.000000000
     0.000000000  0.000000000  8.124629189     0.000000000  0.000000000  0.123082540

  length of vectors
     5.650681772  5.650681772  8.124629189     0.176969796  0.176969796  0.123082540

 FORCES acting on ions
    electron-ion (+dipol)            ewald-force                    non-local-force                 convergence-correction
   -.125E-14 -.121E-14 -.503E-13   0.103E-13 -.178E-14 -.178E-13   0.000E+00 -.786E-23 0.331E-23   0.573E-13 -.103E-12 -.293E-12
   -.125E-14 -.121E-14 0.107E-11   0.102E-13 -.178E-14 0.178E-13   0.232E-22 -.931E-23 0.993E-23   0.379E-13 0.137E-14 -.244E-12
   -.125E-14 0.394E-12 -.583E-13   0.103E-13 -.613E-14 -.178E-13   0.000E+00 0.000E+00 0.662E-23   0.932E-13 -.137E-12 -.305E-12
   -.125E-14 0.394E-12 0.106E-11   0.952E-14 -.613E-14 0.178E-13   -.993E-23 -.672E-24 -.662E-23   0.390E-13 -.110E-14 -.245E-12
   0.393E-12 -.191E-14 -.681E-11   -.380E-13 0.613E-14 -.178E-13   0.331E-23 0.116E-22 -.993E-23   -.113E-12 0.111E-12 -.209E-12
   0.393E-12 -.191E-14 0.429E-11   -.378E-13 0.613E-14 0.178E-13   -.331E-23 0.000E+00 -.993E-23   -.982E-13 0.973E-13 -.347E-12
   0.393E-12 0.393E-12 -.199E-11   -.380E-13 0.178E-14 -.178E-13   -.951E-23 -.132E-22 0.199E-22   -.217E-12 -.139E-13 -.302E-12
   0.393E-12 0.393E-12 0.253E-11   -.372E-13 0.178E-14 0.178E-13   -.331E-23 -.496E-23 0.827E-23   -.969E-13 0.843E-13 -.342E-12
   -.693E-14 -.546E-14 -.279E-12   0.214E-13 0.899E-16 -.131E-14   0.000E+00 -.414E-23 0.207E-23   0.532E-14 -.615E-15 0.564E-13
   -.722E-14 -.489E-14 -.304E-12   0.208E-13 0.849E-16 0.139E-14   -.414E-23 -.145E-23 0.331E-23   -.457E-14 -.128E-14 0.595E-14
   -.650E-14 -.158E-13 -.249E-12   0.211E-13 -.389E-15 -.132E-14   0.000E+00 0.258E-23 0.264E-23   0.283E-14 0.540E-14 0.588E-13
   -.689E-14 -.132E-13 -.275E-12   0.206E-13 -.394E-15 0.138E-14   0.827E-24 -.476E-23 0.207E-23   -.512E-14 0.143E-14 0.477E-14
   -.888E-14 0.635E-12 0.478E-12   0.634E-14 0.504E-15 -.138E-14   0.827E-24 -.310E-23 -.414E-23   -.238E-14 -.690E-14 0.377E-13
   -.883E-14 -.195E-13 0.767E-12   0.687E-14 0.499E-15 0.132E-14   0.000E+00 -.124E-23 0.186E-23   0.706E-14 -.384E-14 -.188E-13
   -.877E-14 0.446E-12 0.888E-13   0.655E-14 0.251E-16 -.139E-14   -.827E-24 -.414E-23 -.393E-23   0.129E-14 0.969E-14 0.464E-13
   -.840E-14 0.457E-12 0.432E-12   0.709E-14 0.201E-16 0.131E-14   0.496E-23 0.659E-24 -.165E-23   0.774E-14 0.542E-15 -.218E-13
   0.150E-11 0.305E-11 0.696E-12   0.114E-15 0.440E-15 -.394E-30   0.207E-23 -.400E-22 0.237E-22   -.286E-12 0.429E-13 -.212E-11

 POSITION                                       TOTAL-FORCE (eV/Angst)
      0.00000      0.00000      0.00000        -0.000000     -0.000000      0.000000
      0.00000      0.00000      4.06231         0.000000      0.000000      0.000000
      0.00000      2.82534      0.00000        -0.000000     -0.000000      0.000000
      0.00000      2.82534      4.06231         0.000000      0.000000     -0.000000
      2.82534      0.00000      0.00000         0.000000      0.000000      0.000000
      2.82534      0.00000      4.06231        -0.000000     -0.000000     -0.000000
      2.82534      2.82534      0.00000         0.000000      0.000000      0.000000
      2.82534      2.82534      4.06231         0.000000     -0.000000     -0.000000
      1.41267      1.41267      2.03116        -0.000000      0.000000      0.000000
      1.41267      1.41267      6.09347         0.000000      0.000000     -0.000000
      1.41267      4.23801      2.03116         0.000000     -0.000000     -0.000000
      1.41267      4.23801      6.09347         0.000000      0.000000     -0.000000
      4.23801      1.41267      2.03116        -0.000000     -0.000000     -0.000000
      4.23801      1.41267      6.09347         0.000000      0.000000      0.000000
      4.23801      4.23801      2.03116        -0.000000      0.000000     -0.000000
      4.23801      4.23801      6.09347        -0.000000     -0.000000      0.000000
    total drift:                                0.000000      0.000000     -0.000000

  FREE ENERGIE OF THE ION-ELECTRON SYSTEM (eV)
  free  energy   TOTEN  =       -99.14878994 eV

  energy  without entropy=      -99.14790004  energy(sigma->0) =      -99.14849330

 writing wavefunctions

 total charge

# of ion       s       p       d       tot
    1        2.201   6.117   1.959  10.277
    2        2.201   6.117   1.959  10.277
    3        2.201   6.117   1.959  10.277
    4        2.201   6.117   1.959  10.277
    5        2.201   6.117   1.959  10.277
    6        2.201   6.117   1.959  10.277
    7        2.201   6.117   1.959  10.277
    8        2.201   6.117   1.959  10.277
    9        0.411   0.417   0.000   0.828
   10        0.411   0.417   0.000   0.828
   11        0.411   0.417   0.000   0.828
   12        0.411   0.417   0.000   0.828
   13        0.411   0.417   0.000   0.828
   14        0.411   0.417   0.000   0.828
   15        0.411   0.417   0.000   0.828
   16        0.411   0.417   0.000   0.828
tot         20.902  52.270  15.669  88.841