 vasp.6.5.0 16Dec24 (build Apr 17 2025 17:55:45) complex

 executed on             LinuxIFC date 2025.06.04  11:04:17

 INCAR:
   ISTART = 1
   ICHARG = 11
   PREC = N
   LREAL = .FALSE.
   ENCUT = 520
   ALGO = N
   NELM = 500
   EDIFF = 1E-06
   IBRION = -1
   ISIF = 3
   NSW = 0
   EDIFFG = -0.01
   LAECHG = .T.
   SYMPREC = 1E-6
   NEDOS = 1000
   LORBIT = 10
   ISMEAR = 1
   SIGMA = 0.1

 POTCAR:    PAW_PBE Ti_sv 26Sep2005
 POTCAR:    PAW_PBE Ga_d 06Jul2010
 POTCAR:    PAW_PBE Al 04Jan2001
|           W    W    AA    RRRRR   N    N  II  N    N   GGGG   !!!           |
|           W    W   A  A   R    R  NN   N  II  NN   N  G    G  !!!           |
|           W    W  A    A  R    R  N N  N  II  N N  N  G       !!!           |
|           W WW W  AAAAAA  RRRRR   N  N N  II  N  N N  G  GGG   !            |
|           WW  WW  A    A  R   R   N   NN  II  N   NN  G    G                |
|           W    W  A    A  R    R  N    N  II  N    N   GGGG   !!!           |
|     For optimal performance we recommend to set                             |
|       NCORE = 2 up to number-of-cores-per-socket                            |
|     This setting can greatly improve the performance of VASP for DFT.       |
|     The default, NCORE=1 might be grossly inefficient on modern             |
|     multi-core architectures or massively parallel machines. Do your        |
|     Unfortunately you need to use the default for GW and RPA                |
|     calculations (for HF NCORE is supported but not extensively tested      |
|     yet).                                                                   |

   TITEL  = PAW_PBE Ti_sv 26Sep2005
   POMASS =   47.880; ZVAL   =   12.000    mass and valenz
   ENMAX  =  274.610; ENMIN  =  205.957 eV

   TITEL  = PAW_PBE Ga_d 06Jul2010
   POMASS =   69.723; ZVAL   =   13.000    mass and valenz
   ENMAX  =  282.691; ENMIN  =  212.018 eV

   TITEL  = PAW_PBE Al 04Jan2001
   POMASS =   26.981; ZVAL   =    3.000    mass and valenz
   ENMAX  =  240.300; ENMIN  =  180.225 eV

  PAW_PBE Ti_sv 26Sep2005               :
  PAW_PBE Ga_d 06Jul2010                :
  PAW_PBE Al 04Jan2001                  :

 POSCAR: Ti1 Al1
  positions in direct lattice
  velocities in cartesian coordinates

 exchange-correlation table for PE
   RHO(1)=    0.500       N(1)  =     2000
   RHO(2)=  100.500       N(2)  =     4000

 ion  position               nearest neighbor table
   1  0.000  0.000  0.001-   3 2.82   5 2.82   3 2.82   5 2.82   9 2.84  11 2.84  13 2.84  15 2.84
                            10 2.85  14 2.85  12 2.85  16 2.85
   2  0.000  0.000  0.499-   4 2.82   6 2.82   4 2.82   6 2.82   9 2.84  11 2.84  13 2.84  15 2.84
                            10 2.85  14 2.85  12 2.85  16 2.85
   3  0.000  0.500  0.001-   1 2.82   7 2.82   1 2.82   7 2.82   9 2.84  13 2.84  11 2.84  15 2.84
                            10 2.85  12 2.85  14 2.85  16 2.85
   4  0.000  0.500  0.499-   2 2.82   8 2.82   2 2.82   8 2.82   9 2.84  13 2.84  11 2.84  15 2.84
                            10 2.85  12 2.85  14 2.85  16 2.85
   5  0.500  0.000  0.001-   1 2.82   7 2.82   1 2.82   7 2.82   9 2.84  13 2.84  11 2.84  15 2.84
                            10 2.85  12 2.85  14 2.85  16 2.85
   6  0.500  0.000  0.499-   2 2.82   8 2.82   2 2.82   8 2.82   9 2.84  13 2.84  11 2.84  15 2.84
                            10 2.85  12 2.85  14 2.85  16 2.85
   7  0.500  0.500  0.001-   3 2.82   5 2.82   3 2.82   5 2.82   9 2.84  11 2.84  13 2.84  15 2.84
                            10 2.85  14 2.85  12 2.85  16 2.85
   8  0.500  0.500  0.499-   4 2.82   6 2.82   4 2.82   6 2.82   9 2.84  11 2.84  13 2.84  15 2.84
                            10 2.85  14 2.85  12 2.85  16 2.85
   9  0.250  0.250  0.250-  11 2.82  13 2.82  11 2.82  13 2.82   5 2.84   6 2.84   7 2.84   8 2.84
                             1 2.84   2 2.84   3 2.84   4 2.84
  10  0.250  0.250  0.750-  12 2.82  14 2.82  12 2.82  14 2.82   5 2.85   6 2.85   7 2.85   8 2.85
                             1 2.85   2 2.85   3 2.85   4 2.85
  11  0.250  0.750  0.250-   9 2.82  15 2.82   9 2.82  15 2.82   5 2.84   6 2.84   7 2.84   8 2.84
                             1 2.84   2 2.84   3 2.84   4 2.84
  12  0.250  0.750  0.750-  10 2.82  16 2.82  10 2.82  16 2.82   5 2.85   6 2.85   7 2.85   8 2.85
                             1 2.85   2 2.85   3 2.85   4 2.85
  13  0.750  0.250  0.250-   9 2.82  15 2.82  15 2.82   9 2.82   5 2.84   6 2.84   7 2.84   8 2.84
                             1 2.84   2 2.84   3 2.84   4 2.84
  14  0.750  0.250  0.750-  10 2.82  16 2.82  16 2.82  10 2.82   5 2.85   6 2.85   7 2.85   8 2.85
                             1 2.85   2 2.85   3 2.85   4 2.85
  15  0.750  0.750  0.250-  11 2.82  13 2.82  13 2.82  11 2.82   5 2.84   6 2.84   7 2.84   8 2.84
                             1 2.84   2 2.84   3 2.84   4 2.84
  16  0.750  0.750  0.750-  12 2.82  14 2.82  14 2.82  12 2.82   5 2.85   6 2.85   7 2.85   8 2.85
                             1 2.85   2 2.85   3 2.85   4 2.85

  LATTYP: Found a simple tetragonal cell.
 ALAT       =     5.6452860611
 C/A-ratio  =     1.4365937127

  Lattice vectors:

 A1 = (   5.6452860611,   0.0000000000,   0.0000000000)
 A2 = (   0.0000000000,   5.6452860611,   0.0000000000)
 A3 = (   0.0000000000,   0.0000000000,   8.1099824619)

Analysis of symmetry for initial positions (statically):
 Subroutine PRICEL returns:
 Original cell was already a primitive cell.

 Routine SETGRP: Setting up the symmetry group for a
 simple tetragonal supercell.

 Subroutine GETGRP returns: Found 16 space group operations
 (whereof  2 operations were pure point group operations)
 out of a pool of 16 trial point group operations.

The static configuration has the point symmetry C_1h.
 The point group associated with its full space group is D_4h.

Analysis of symmetry for dynamics (positions and initial velocities):
 Subroutine PRICEL returns:
 Original cell was already a primitive cell.

 Routine SETGRP: Setting up the symmetry group for a
 simple tetragonal supercell.

 Subroutine GETGRP returns: Found 16 space group operations
 (whereof  2 operations were pure point group operations)
 out of a pool of 16 trial point group operations.

The dynamic configuration has the point symmetry C_1h.
 The point group associated with its full space group is D_4h.

 Subroutine INISYM returns: Found 16 space group operations
 (whereof  2 operations are pure point group operations),
 and found     1 'primitive' translations

                                     Primitive cell

  volume of cell :     258.4591

  direct lattice vectors                    reciprocal lattice vectors
     5.645286061  0.000000000  0.000000000     0.177138942  0.000000000  0.000000000
     0.000000000  5.645286061  0.000000000     0.000000000  0.177138942  0.000000000
     0.000000000  0.000000000  8.109982462     0.000000000  0.000000000  0.123304829

  length of vectors
     5.645286061  5.645286061  8.109982462     0.177138942  0.177138942  0.123304829

  position of ions in fractional coordinates (direct lattice)
     0.000197156  0.000197156  0.000617192
     0.000197156  0.000197156  0.499382808
     0.000197156  0.499802844  0.000617192
     0.000197156  0.499802844  0.499382808
     0.499802844  0.000197156  0.000617192
     0.499802844  0.000197156  0.499382808
     0.499802844  0.499802844  0.000617192
     0.499802844  0.499802844  0.499382808
     0.250000000  0.250000000  0.250000000
     0.250000000  0.250000000  0.750000000
     0.250000000  0.750000000  0.250000000
     0.250000000  0.750000000  0.750000000
     0.750000000  0.250000000  0.250000000
     0.750000000  0.250000000  0.750000000
     0.750000000  0.750000000  0.250000000
     0.750000000  0.750000000  0.750000000

  ion indices of the primitive-cell ions
   primitive index   ion index
                 1           1
                 2           2
                 3           3
                 4           4
                 5           5
                 6           6
                 7           7
                 8           8
                 9           9
                10          10
                11          11
                12          12
                13          13
                14          14
                15          15
                16          16

 KPOINTS: K-Spacing Value to Generate K-Mesh: 0.03

Automatic generation of k-mesh.
 Grid dimensions read from file:
 generate k-points for:    6    6    4

 Generating k-lattice:

  Cartesian coordinates                     Fractional coordinates (reciprocal lattice)
     0.029523157  0.000000000  0.000000000     0.166666667  0.000000000  0.000000000
     0.000000000  0.029523157  0.000000000     0.000000000  0.166666667  0.000000000
     0.000000000  0.000000000  0.030826207     0.000000000  0.000000000  0.250000000

  Length of vectors
     0.029523157  0.029523157  0.030826207

  Shift w.r.t. Gamma in fractional coordinates (k-lattice)
     0.000000000  0.000000000  0.000000000

 Subroutine IBZKPT returns following result:

 Found     30 irreducible k-points:

 Following reciprocal coordinates:
            Coordinates               Weight
  0.000000  0.000000  0.000000      1.000000
  0.166667  0.000000  0.000000      4.000000
  0.333333  0.000000  0.000000      4.000000
  0.500000  0.000000  0.000000      2.000000
  0.166667  0.166667  0.000000      4.000000
  0.333333  0.166667  0.000000      8.000000
  0.500000  0.166667  0.000000      4.000000
  0.333333  0.333333  0.000000      4.000000
  0.500000  0.333333  0.000000      4.000000
  0.500000  0.500000  0.000000      1.000000
  0.000000  0.000000  0.250000      2.000000
  0.166667  0.000000  0.250000      8.000000
  0.333333  0.000000  0.250000      8.000000
  0.500000  0.000000  0.250000      4.000000
  0.166667  0.166667  0.250000      8.000000
  0.333333  0.166667  0.250000     16.000000
  0.500000  0.166667  0.250000      8.000000
  0.333333  0.333333  0.250000      8.000000
  0.500000  0.333333  0.250000      8.000000
  0.500000  0.500000  0.250000      2.000000
  0.000000  0.000000  0.500000      1.000000
  0.166667  0.000000  0.500000      4.000000
  0.333333  0.000000  0.500000      4.000000
  0.500000  0.000000  0.500000      2.000000
  0.166667  0.166667  0.500000      4.000000
  0.333333  0.166667  0.500000      8.000000
  0.500000  0.166667  0.500000      4.000000
  0.333333  0.333333  0.500000      4.000000
  0.500000  0.333333  0.500000      4.000000
  0.500000  0.500000  0.500000      1.000000

 Following cartesian coordinates:
            Coordinates               Weight
  0.000000  0.000000  0.000000      1.000000
  0.029523  0.000000  0.000000      4.000000
  0.059046  0.000000  0.000000      4.000000
  0.088569  0.000000  0.000000      2.000000
  0.029523  0.029523  0.000000      4.000000
  0.059046  0.029523  0.000000      8.000000
  0.088569  0.029523  0.000000      4.000000
  0.059046  0.059046  0.000000      4.000000
  0.088569  0.059046  0.000000      4.000000
  0.088569  0.088569  0.000000      1.000000
  0.000000  0.000000  0.030826      2.000000
  0.029523  0.000000  0.030826      8.000000
  0.059046  0.000000  0.030826      8.000000
[...]
 k-point    26 :   0.3333 0.1667 0.5000  plane waves:    6950
 k-point    27 :   0.5000 0.1667 0.5000  plane waves:    6952
 k-point    28 :   0.3333 0.3333 0.5000  plane waves:    6974
 k-point    29 :   0.5000 0.3333 0.5000  plane waves:    6968
 k-point    30 :   0.5000 0.5000 0.5000  plane waves:    6912

 maximum and minimum number of plane-waves per node :      7014     6892

 maximum number of plane-waves:      7014
 maximum index in each direction:
   IXMAX=   10   IYMAX=   10   IZMAX=   15
   IXMIN=  -10   IYMIN=  -10   IZMIN=  -15

 serial   3D FFT for wavefunctions
 parallel 3D FFT for charge:
    minimum data exchange during FFTs selected (reduces bandwidth)

 initial charge density was supplied:
 number of electron     129.9999750 magnetization
 keeping initial charge density in first step

 Maximum index for augmentation-charges          454 (set IRDMAX)

 First call to EWALD:  gamma=   0.278
 Maximum number of real-space cells   3x   3x   2
 Maximum number of reciprocal cells   3x   3x   3

--------------------------------------- Ionic step        1  -------------------------------------------

--------------------------------------- Iteration      1(   1)  ---------------------------------------

 eigenvalue-minimisations  :  7680
 total energy-change (2. order) : 0.1001957E+04  (-0.6482552E+04)
 number of electron     129.9999750 magnetization
 augmentation part      129.9999750 magnetization

 Free energy of the ion-electron system (eV)
  alpha Z        PSCENC =       381.68433306
  Ewald energy   TEWEN  =     -9869.40651717
  -Hartree energ DENC   =     -4556.37201821
  -exchange      EXHF   =         0.00000000
  -V(xc)+E(xc)   XCENC  =       349.49089358
  PAW double counting   =     14886.21537697   -14813.91545696
  entropy T*S    EENTRO =        -0.00192735
  eigenvalues    EBANDS =      -604.01436852
  atomic energy  EATOM  =     15228.27630495
  Solvation  Ediel_sol  =         0.00000000
  free energy    TOTEN  =      1001.95662034 eV

  energy without entropy =     1001.95854769  energy(sigma->0) =     1001.95726279

[...]

 eigenvalue-minimisations  :  7744
 total energy-change (2. order) :-0.1014029E+04  (-0.9702992E+03)
 number of electron     129.9999750 magnetization
 augmentation part      129.9999750 magnetization

[...]

--------------------------------------- Iteration      1(   8)  ---------------------------------------

 eigenvalue-minimisations  :  8768
 total energy-change (2. order) :-0.7526287E-06  (-0.7522898E-06)
 number of electron     129.9999750 magnetization
 augmentation part      129.9999750 magnetization

 Free energy of the ion-electron system (eV)
  alpha Z        PSCENC =       381.68433306
  Ewald energy   TEWEN  =     -9869.40651717
  -Hartree energ DENC   =     -4556.37201821
  -exchange      EXHF   =         0.00000000
  -V(xc)+E(xc)   XCENC  =       349.49089358
  PAW double counting   =     14886.21537697   -14813.91545696
  entropy T*S    EENTRO =         0.00386926
  eigenvalues    EBANDS =     -1704.43787167
  atomic energy  EATOM  =     15228.27630495
  Solvation  Ediel_sol  =         0.00000000
  free energy    TOTEN  =       -98.46108620 eV

  energy without entropy =      -98.46495546  energy(sigma->0) =      -98.46237596

 average (electrostatic) potential at core
  the test charge radii are     1.0397  1.0314  1.0406
  (the norm of the test charge is              1.0000)
       1 -72.3270       2 -72.3270       3 -72.3270       4 -72.3270       5 -72.3270
       6 -72.3270       7 -72.3270       8 -72.3270       9 -61.6140      10 -71.3204
      11 -71.4148      12 -71.3237      13 -71.4148      14 -71.3237      15 -71.3097
      16 -71.3375

 E-fermi :   8.2926     XC(G=0): -11.1518     alpha+bet :-16.1915

 val. band max:        8.2906027415   @ k =   0.5000   0.5000   0.5000
 cond. band min:       8.3134782216   @ k =   0.5000   0.3333   0.2500
 fundamental gap:      0.0228754801
 Fermi energy:         8.2925657058

 k-point     1 :       0.0000    0.0000    0.0000
  band No.  band energies     occupation
      1     -48.3377      2.00000
      2     -48.3371      2.00000
      3     -48.2796      2.00000
      4     -48.2796      2.00000
      5     -48.2791      2.00000
      6     -48.2791      2.00000
      7     -48.2236      2.00000
      8     -48.2232      2.00000
      9     -24.7705      2.00000
     10     -24.7668      2.00000
     11     -24.7582      2.00000
     12     -24.7555      2.00000
     13     -24.7533      2.00000
     14     -24.7363      2.00000
     15     -24.6980      2.00000
     16     -24.6980      2.00000
     17     -24.6953      2.00000
     18     -24.6953      2.00000
     19     -24.6901      2.00000
     20     -24.6901      2.00000
     21     -24.6787      2.00000
     22     -24.6787      2.00000
     23     -24.6370      2.00000
     24     -24.6261      2.00000
     25     -24.2878      2.00000
     26     -24.2878      2.00000
     27     -24.2873      2.00000
     28     -24.2873      2.00000
     29     -24.2514      2.00000
     30     -24.2508      2.00000
     31     -24.2406      2.00000
     32     -24.2399      2.00000
     33      -6.1328      2.00000
     34      -6.1133      2.00000
     35      -6.0903      2.00000
     36      -6.0903      2.00000
     37      -6.0632      2.00000
     38      -0.9051      2.00000
     39       0.5714      2.00000
     40       2.9183      2.00000
     41       3.0201      2.00000
     42       3.4287      2.00000
     43       3.6082      2.00000
     44       3.7449      2.00000
     45       3.7449      2.00000
     46       3.7833      2.00000
     47       5.0722      2.00000
     48       5.3469      2.00000
     49       5.3469      2.00000
     50       5.7756      2.00000
     51       6.0063      2.00000
     52       6.0063      2.00000
     53       6.4768      2.00000
     54       6.5804      2.00000
     55       6.6019      2.00000
     56       7.1165      2.00000
     57       7.1399      2.00000
     58       7.1399      2.00000
     59       7.1468      2.00000
     60       7.4581      2.00000
[...]
    114      16.6257      0.00000
    115      16.6257      0.00000
    116      17.8253      0.00000
    117      17.9512      0.00000
    118      18.6678      0.00000
    119      18.6678      0.00000
    120      19.0169      0.00000
    121      19.0169      0.00000
    122      19.4048      0.00000
    123      19.4048      0.00000
    124      19.9649      0.00000
    125      20.5197      0.00000
    126      20.5198      0.00000
    127      20.6870      0.00000
    128      20.6871      0.00000

[...]

 k-point    30 :       0.5000    0.5000    0.5000
  band No.  band energies     occupation
      1     -48.2807      2.00000
      2     -48.2807      2.00000
      3     -48.2801      2.00000
      4     -48.2801      2.00000
      5     -48.2801      2.00000
      6     -48.2801      2.00000
      7     -48.2795      2.00000
      8     -48.2795      2.00000
      9     -24.6885      2.00000
     10     -24.6878      2.00000
     11     -24.6878      2.00000
     12     -24.6878      2.00000
     13     -24.6875      2.00000
     14     -24.6875      2.00000
     15     -24.6874      2.00000
     16     -24.6870      2.00000
     17     -24.5154      2.00000
     18     -24.5152      2.00000
     19     -24.5113      2.00000
     20     -24.5111      2.00000
     21     -24.5032      2.00000
     22     -24.5032      2.00000
     23     -24.5032      2.00000
     24     -24.5032      2.00000
     25     -24.4984      2.00000
     26     -24.4984      2.00000
     27     -24.4984      2.00000
     28     -24.4984      2.00000
     29     -24.4905      2.00000
     30     -24.4905      2.00000
     31     -24.4863      2.00000
     32     -24.4863      2.00000
     33      -6.1273      2.00000
     34      -6.1145      2.00000
     35      -6.0905      2.00000
     36      -6.0905      2.00000
     37      -6.0606      2.00000
     38       1.0610      2.00000
     39       1.9337      2.00000
     40       1.9337      2.00000
     41       1.9848      2.00000
     42       1.9894      2.00000
     43       1.9904      2.00000
     44       1.9926      2.00000
     45       1.9926      2.00000
     46       6.1257      2.00000
     47       6.2235      2.00000
     48       6.2235      2.00000
     49       6.2277      2.00000
     50       6.2282      2.00000
     51       6.2354      2.00000
     52       6.2446      2.00000
     53       6.2446      2.00000
     54       7.8228      2.00000
     55       7.8228      2.00000
     56       7.8709      2.00000
     57       7.8997      2.00000
     58       7.9037      2.00000
     59       7.9037      2.00000
     60       7.9061      2.00000
[...]
    114      17.5079      0.00000
    115      17.5165      0.00000
    116      17.6402      0.00000
    117      18.0406      0.00000
    118      18.6541      0.00000
    119      18.7040      0.00000
    120      18.7045      0.00000
    121      18.7146      0.00000
    122      18.7246      0.00000
    123      18.7496      0.00000
    124      18.7527      0.00000
    125      18.7907      0.00000
    126      18.7927      0.00000
    127      18.7956      0.00000
    128      18.8001      0.00000

 soft charge-density along one line, spin component           1
         0         1         2         3         4         5         6         7         8         9
 total charge-density along one line

------------------------ aborting loop because EDIFF is reached ----------------------------------------

 total charge

# of ion       s       p       d       tot
    1        2.200   6.117   1.960  10.276
    2        2.200   6.117   1.960  10.276
    3        2.200   6.117   1.960  10.276
    4        2.200   6.117   1.960  10.276
    5        2.200   6.117   1.960  10.276
    6        2.200   6.117   1.960  10.276
    7        2.200   6.117   1.960  10.276
    8        2.200   6.117   1.960  10.276
    9        0.882   0.899   9.959  11.740
   10        0.411   0.419   0.000   0.830
   11        0.414   0.413   0.000   0.826
   12        0.410   0.419   0.000   0.829
   13        0.414   0.413   0.000   0.826
   14        0.410   0.419   0.000   0.829
   15        0.410   0.422   0.000   0.832
   16        0.411   0.417   0.000   0.828
tot         21.360  52.754  25.635  99.749

  FORCE on cell =-STRESS in cart. coord.  units (eV):
  Direction    XX          YY          ZZ          XY          YZ          ZX
  Alpha Z   381.68433   381.68433   381.68433
  Ewald   -2823.08816 -2823.08816 -4223.25302     0.00000     0.00000     0.00000
  Hartree  1932.25963  1932.25963   692.74550    -0.00000    -0.00000    -0.00000
  E(xc)    -646.54579  -646.54579  -648.19303    -0.00000    -0.00000     0.00000
  Local    -923.74460  -923.74460  1755.34097    -0.00000     0.00000    -0.00000
  n-local  -121.13245  -157.98181   -83.19584    -3.50187     0.67419     1.67593
  augment   618.43822   618.43822   595.37395     0.00000     0.00000     0.00000
  Kinetic  1581.22477  1620.48970  1530.05700     1.75665    -2.17933    -2.06265
  Fock        0.00000     0.00000     0.00000     0.00000     0.00000     0.00000
  Total       0.30373     0.30373     0.55986    -0.00000     0.00000     0.00000
  in kB       1.88283     1.88283     3.47054    -0.00000     0.00000     0.00000

 VOLUME and BASIS-vectors are now :
  energy-cutoff  :      520.00
  volume of cell :      258.46
      direct lattice vectors                 reciprocal lattice vectors
     5.645286061  0.000000000  0.000000000     0.177138942  0.000000000  0.000000000
     0.000000000  5.645286061  0.000000000     0.000000000  0.177138942  0.000000000
     0.000000000  0.000000000  8.109982462     0.000000000  0.000000000  0.123304829

  length of vectors
     5.645286061  5.645286061  8.109982462     0.177138942  0.177138942  0.123304829

 FORCES acting on ions
    electron-ion (+dipol)            ewald-force                    non-local-force                 convergence-correction
   0.692E+02 0.692E+02 0.163E+03   -.694E+02 -.694E+02 -.163E+03   0.171E+00 0.171E+00 0.195E+00   0.317E-02 0.317E-02 0.101E-01
   0.692E+02 0.692E+02 -.163E+03   -.694E+02 -.694E+02 0.163E+03   0.171E+00 0.171E+00 -.195E+00   0.317E-02 0.317E-02 -.101E-01
   0.692E+02 -.692E+02 0.163E+03   -.694E+02 0.694E+02 -.163E+03   0.171E+00 -.171E+00 0.195E+00   0.317E-02 -.317E-02 0.101E-01
   0.692E+02 -.692E+02 -.163E+03   -.694E+02 0.694E+02 0.163E+03   0.171E+00 -.171E+00 -.195E+00   0.317E-02 -.317E-02 -.101E-01
   -.692E+02 0.692E+02 0.163E+03   0.694E+02 -.694E+02 -.163E+03   -.171E+00 0.171E+00 0.195E+00   -.317E-02 0.317E-02 0.101E-01
   -.692E+02 0.692E+02 -.163E+03   0.694E+02 -.694E+02 0.163E+03   -.171E+00 0.171E+00 -.195E+00   -.317E-02 0.317E-02 -.101E-01
   -.692E+02 -.692E+02 0.163E+03   0.694E+02 0.694E+02 -.163E+03   -.171E+00 -.171E+00 0.195E+00   -.317E-02 -.317E-02 0.101E-01
   -.692E+02 -.692E+02 -.163E+03   0.694E+02 0.694E+02 0.163E+03   -.171E+00 -.171E+00 -.195E+00   -.317E-02 -.317E-02 -.101E-01
   0.195E-12 0.105E-11 -.146E-11   0.127E-12 -.169E-13 0.257E-13   0.132E-22 0.000E+00 0.000E+00   -.118E-11 0.729E-12 -.154E-11
   0.969E-14 -.569E-12 0.576E-13   0.392E-13 0.406E-14 0.296E-14   -.265E-22 -.529E-22 0.000E+00   0.106E-12 -.119E-12 0.203E-12
   0.109E-13 -.662E-13 -.526E-12   -.815E-14 0.515E-15 0.690E-14   0.000E+00 0.000E+00 -.132E-22   0.189E-13 -.785E-13 -.310E-12
   0.112E-13 0.854E-12 0.272E-12   0.155E-13 0.206E-13 -.578E-14   0.132E-22 0.106E-21 0.000E+00   0.267E-12 0.119E-12 0.373E-12
   -.303E-13 0.600E-12 0.242E-12   -.483E-14 -.439E-14 0.228E-13   0.000E+00 0.248E-23 0.000E+00   0.895E-13 0.823E-13 -.144E-12
   -.220E-14 -.144E-12 0.621E-12   0.161E-13 0.347E-14 0.101E-13   0.265E-22 0.000E+00 0.000E+00   -.107E-12 -.104E-12 0.167E-12
   -.175E-14 0.447E-12 -.138E-12   0.393E-13 0.278E-13 -.169E-13   0.000E+00 0.827E-23 0.000E+00   -.182E-13 -.831E-13 -.267E-12
   -.776E-14 0.466E-12 0.254E-12   0.117E-13 0.411E-14 0.177E-13   -.331E-23 0.000E+00 0.000E+00   -.266E-12 0.103E-12 0.352E-12
   -.197E-11 -.519E-11 0.480E-10   -.344E-13 -.176E-13 0.350E-13   -.278E-16 -.278E-16 -.555E-16   -.678E-12 0.726E-11 -.247E-10

 POSITION                                       TOTAL-FORCE (eV/Angst)
      0.00111      0.00111      0.00501         0.000681      0.000681      0.007502
      0.00111      0.00111      4.04999         0.000681      0.000681     -0.007502
      0.00111      2.82153      0.00501         0.000681     -0.000681      0.007502
      0.00111      2.82153      4.04999         0.000681     -0.000681     -0.007502
      2.82153      0.00111      0.00501        -0.000681      0.000681      0.007502
      2.82153      0.00111      4.04999        -0.000681      0.000681     -0.007502
      2.82153      2.82153      0.00501        -0.000681     -0.000681      0.007502
      2.82153      2.82153      4.04999        -0.000681     -0.000681     -0.007502
      1.41132      1.41132      2.02750         0.000000     -0.000000     -0.000000
      1.41132      1.41132      6.08249         0.000000     -0.000000     -0.000000
      1.41132      4.23396      2.02750         0.000000     -0.000000      0.000000
      1.41132      4.23396      6.08249         0.000000     -0.000000      0.000000
      4.23396      1.41132      2.02750         0.000000     -0.000000     -0.000000
      4.23396      1.41132      6.08249         0.000000     -0.000000     -0.000000
      4.23396      4.23396      2.02750         0.000000     -0.000000     -0.000000
      4.23396      4.23396      6.08249         0.000000     -0.000000     -0.000000
    total drift:                               -0.000000      0.000000      0.000000

  FREE ENERGIE OF THE ION-ELECTRON SYSTEM (eV)
  free  energy   TOTEN  =       -98.46108620 eV

  energy  without entropy=      -98.46495546  energy(sigma->0) =      -98.46237596

 writing wavefunctions

 total charge

# of ion       s       p       d       tot
    1        2.200   6.117   1.960  10.276
    2        2.200   6.117   1.960  10.276
    3        2.200   6.117   1.960  10.276
    4        2.200   6.117   1.960  10.276
    5        2.200   6.117   1.960  10.276
    6        2.200   6.117   1.960  10.276
    7        2.200   6.117   1.960  10.276
    8        2.200   6.117   1.960  10.276
    9        0.882   0.899   9.959  11.740
   10        0.411   0.419   0.000   0.830
   11        0.414   0.413   0.000   0.826
   12        0.410   0.419   0.000   0.829
   13        0.414   0.413   0.000   0.826
   14        0.410   0.419   0.000   0.829
   15        0.410   0.422   0.000   0.832
   16        0.411   0.417   0.000   0.828
tot         21.360  52.754  25.635  99.749