 vasp.6.5.0 16Dec24 (build Apr 17 2025 17:55:45) complex

 executed on             LinuxIFC date 2025.06.04  15:38:16

 INCAR:
   ISTART = 1
   ICHARG = 11
   PREC = N
   LREAL = .FALSE.
   LORBIT = 11
   ENCUT = 520
   ALGO = N
   NELM = 500
   EDIFF = 1E-05
   IBRION = -1
   ISIF = 3
   NSW = 0
   EDIFFG = -0.01
   ISMEAR = 1
   SIGMA = 0.1

 POTCAR:    PAW_PBE Ti_sv 26Sep2005
 POTCAR:    PAW_PBE Al 04Jan2001
|           W    W    AA    RRRRR   N    N  II  N    N   GGGG   !!!           |
|           W    W   A  A   R    R  NN   N  II  NN   N  G    G  !!!           |
|           W    W  A    A  R    R  N N  N  II  N N  N  G       !!!           |
|           W WW W  AAAAAA  RRRRR   N  N N  II  N  N N  G  GGG   !            |
|           WW  WW  A    A  R   R   N   NN  II  N   NN  G    G                |
|           W    W  A    A  R    R  N    N  II  N    N   GGGG   !!!           |
|     For optimal performance we recommend to set                             |
|       NCORE = 2 up to number-of-cores-per-socket                            |
|     This setting can greatly improve the performance of VASP for DFT.       |
|     The default, NCORE=1 might be grossly inefficient on modern             |
|     multi-core architectures or massively parallel machines. Do your        |
|     Unfortunately you need to use the default for GW and RPA                |
|     calculations (for HF NCORE is supported but not extensively tested      |
|     yet).                                                                   |

   TITEL  = PAW_PBE Ti_sv 26Sep2005
   POMASS =   47.880; ZVAL   =   12.000    mass and valenz
   ENMAX  =  274.610; ENMIN  =  205.957 eV

   TITEL  = PAW_PBE Al 04Jan2001
   POMASS =   26.981; ZVAL   =    3.000    mass and valenz
   ENMAX  =  240.300; ENMIN  =  180.225 eV

  PAW_PBE Ti_sv 26Sep2005               :
  PAW_PBE Al 04Jan2001                  :

 POSCAR: Ti1 Al1
  positions in direct lattice
  velocities in cartesian coordinates

 exchange-correlation table for PE
   RHO(1)=    0.500       N(1)  =     2000
   RHO(2)=  100.500       N(2)  =     4000

 ion  position               nearest neighbor table
   1  0.000  0.000  0.000-   3 2.83   5 2.83   3 2.83   5 2.83  11 2.85  12 2.85  13 2.85  14 2.85
                            15 2.85  16 2.85   9 2.85  10 2.85
   2  0.000  0.000  0.500-   4 2.83   6 2.83   4 2.83   6 2.83  11 2.85  12 2.85  13 2.85  14 2.85
                            15 2.85  16 2.85   9 2.85  10 2.85
   3  0.000  0.500  0.000-   1 2.83   7 2.83   1 2.83   7 2.83  11 2.85  12 2.85  13 2.85  14 2.85
                            15 2.85  16 2.85   9 2.85  10 2.85
   4  0.000  0.500  0.500-   2 2.83   8 2.83   2 2.83   8 2.83  11 2.85  12 2.85  13 2.85  14 2.85
                            15 2.85  16 2.85   9 2.85  10 2.85
   5  0.500  0.000  0.000-   1 2.83   7 2.83   7 2.83   1 2.83  11 2.85  12 2.85  13 2.85  14 2.85
                            15 2.85  16 2.85   9 2.85  10 2.85
   6  0.500  0.000  0.500-   2 2.83   8 2.83   8 2.83   2 2.83  11 2.85  12 2.85  13 2.85  14 2.85
                            15 2.85  16 2.85   9 2.85  10 2.85
   7  0.500  0.500  0.000-   3 2.83   5 2.83   5 2.83   3 2.83  11 2.85  12 2.85  13 2.85  14 2.85
                            15 2.85  16 2.85   9 2.85  10 2.85
   8  0.500  0.500  0.500-   4 2.83   6 2.83   6 2.83   4 2.83  11 2.85  12 2.85  13 2.85  14 2.85
                            15 2.85  16 2.85   9 2.85  10 2.85
   9  0.250  0.250  0.250-  11 2.83  13 2.83  11 2.83  13 2.83   5 2.85   6 2.85   7 2.85   8 2.85
                             1 2.85   2 2.85   3 2.85   4 2.85
  10  0.250  0.250  0.750-  12 2.83  14 2.83  12 2.83  14 2.83   5 2.85   6 2.85   7 2.85   8 2.85
                             1 2.85   2 2.85   3 2.85   4 2.85
  11  0.250  0.750  0.250-   9 2.83  15 2.83   9 2.83  15 2.83   5 2.85   6 2.85   7 2.85   8 2.85
                             1 2.85   2 2.85   3 2.85   4 2.85
  12  0.250  0.750  0.750-  10 2.83  16 2.83  10 2.83  16 2.83   5 2.85   6 2.85   7 2.85   8 2.85
                             1 2.85   2 2.85   3 2.85   4 2.85
  13  0.750  0.250  0.250-   9 2.83  15 2.83  15 2.83   9 2.83   5 2.85   6 2.85   7 2.85   8 2.85
                             1 2.85   2 2.85   3 2.85   4 2.85
  14  0.750  0.250  0.750-  10 2.83  16 2.83  16 2.83  10 2.83   5 2.85   6 2.85   7 2.85   8 2.85
                             1 2.85   2 2.85   3 2.85   4 2.85
  15  0.750  0.750  0.250-  11 2.83  13 2.83  13 2.83  11 2.83   5 2.85   6 2.85   7 2.85   8 2.85
                             1 2.85   2 2.85   3 2.85   4 2.85
  16  0.750  0.750  0.750-  12 2.83  14 2.83  14 2.83  12 2.83   5 2.85   6 2.85   7 2.85   8 2.85
                             1 2.85   2 2.85   3 2.85   4 2.85

  LATTYP: Found a simple tetragonal cell.
 ALAT       =     5.6506817720
 C/A-ratio  =     1.4378139695

  Lattice vectors:

 A1 = (   5.6506817720,   0.0000000000,   0.0000000000)
 A2 = (   0.0000000000,   5.6506817720,   0.0000000000)
 A3 = (   0.0000000000,   0.0000000000,   8.1246291889)

Analysis of symmetry for initial positions (statically):
 Subroutine PRICEL returns following result:

[...]

   8 primitive cells build up your supercell.

 Routine SETGRP: Setting up the symmetry group for a
 simple tetragonal supercell.

 Subroutine GETGRP returns: Found 16 space group operations
 (whereof 16 operations were pure point group operations)
 out of a pool of 16 trial point group operations.

The static configuration has the point symmetry D_4h.

Analysis of symmetry for dynamics (positions and initial velocities):
 Subroutine PRICEL returns following result:

  LATTYP: Found a simple tetragonal cell.
 ALAT       =     2.8253408860
 C/A-ratio  =     1.4378139695

  Lattice vectors:

 A1 = (   2.8253408860,   0.0000000000,   0.0000000000)
 A2 = (   0.0000000000,   2.8253408860,   0.0000000000)
 A3 = (   0.0000000000,   0.0000000000,   4.0623145945)

   8 primitive cells build up your supercell.

 Routine SETGRP: Setting up the symmetry group for a
 simple tetragonal supercell.

 Subroutine GETGRP returns: Found 16 space group operations
 (whereof 16 operations were pure point group operations)
 out of a pool of 16 trial point group operations.

The dynamic configuration has the point symmetry D_4h.

 Subroutine INISYM returns: Found 16 space group operations
 (whereof 16 operations are pure point group operations),
 and found     8 'primitive' translations

                                     Primitive cell

  volume of cell :      32.4276

  direct lattice vectors                    reciprocal lattice vectors
     2.825340886  0.000000000  0.000000000     0.353939592  0.000000000  0.000000000
     0.000000000  2.825340886  0.000000000     0.000000000  0.353939592  0.000000000
     0.000000000  0.000000000  4.062314594     0.000000000  0.000000000  0.246165081

  length of vectors
     2.825340886  2.825340886  4.062314594     0.353939592  0.353939592  0.246165081

  position of ions in fractional coordinates (direct lattice)
     0.000000000  0.000000000  0.000000000
     0.500000000  0.500000000  0.500000000

  ion indices of the primitive-cell ions
   primitive index   ion index
                 1           1
                 2           9

 KPOINTS: K-Path Generated by VASPKIT.

Interpolating k-points between supplied coordinates.

 Line segments in fractional coordinates (reciprocal lattice):
    0.000000  0.000000  0.000000  ...  0.000000  0.500000  0.000000
    0.000000  0.500000  0.000000  ...  0.500000  0.500000  0.000000
    0.500000  0.500000  0.000000  ...  0.000000  0.000000  0.000000
    0.000000  0.000000  0.000000  ...  0.000000  0.000000  0.500000
    0.000000  0.000000  0.500000  ...  0.000000  0.500000  0.500000
    0.000000  0.500000  0.500000  ...  0.500000  0.500000  0.500000
    0.500000  0.500000  0.500000  ...  0.000000  0.000000  0.500000
    0.000000  0.500000  0.000000  ...  0.000000  0.500000  0.500000
    0.500000  0.500000  0.000000  ...  0.500000  0.500000  0.500000

 Generated    20 points on each line segment, for a total of    180 k-points:

 Following reciprocal coordinates:
            Coordinates               Weight
  0.000000  0.000000  0.000000      0.005556
  0.000000  0.026316  0.000000      0.005556
  0.000000  0.052632  0.000000      0.005556
  0.000000  0.078947  0.000000      0.005556
  0.000000  0.105263  0.000000      0.005556
  0.000000  0.131579  0.000000      0.005556
  0.000000  0.157895  0.000000      0.005556
  0.000000  0.184211  0.000000      0.005556
  0.000000  0.210526  0.000000      0.005556
  0.000000  0.236842  0.000000      0.005556
  0.000000  0.263158  0.000000      0.005556
  0.000000  0.289474  0.000000      0.005556
  0.000000  0.315789  0.000000      0.005556
  0.000000  0.342105  0.000000      0.005556
  0.000000  0.368421  0.000000      0.005556
  0.000000  0.394737  0.000000      0.005556
  0.000000  0.421053  0.000000      0.005556
  0.000000  0.447368  0.000000      0.005556
  0.000000  0.473684  0.000000      0.005556
  0.000000  0.500000  0.000000      0.005556
  0.000000  0.500000  0.000000      0.005556
  0.026316  0.500000  0.000000      0.005556
  0.052632  0.500000  0.000000      0.005556
  0.078947  0.500000  0.000000      0.005556
  0.105263  0.500000  0.000000      0.005556
  0.131579  0.500000  0.000000      0.005556
  0.157895  0.500000  0.000000      0.005556
  0.184211  0.500000  0.000000      0.005556
  0.210526  0.500000  0.000000      0.005556
  0.236842  0.500000  0.000000      0.005556
  0.263158  0.500000  0.000000      0.005556
  0.289474  0.500000  0.000000      0.005556
  0.315789  0.500000  0.000000      0.005556
  0.342105  0.500000  0.000000      0.005556
  0.368421  0.500000  0.000000      0.005556
  0.394737  0.500000  0.000000      0.005556
  0.421053  0.500000  0.000000      0.005556
  0.447368  0.500000  0.000000      0.005556
  0.473684  0.500000  0.000000      0.005556
  0.500000  0.500000  0.000000      0.005556
  0.500000  0.500000  0.000000      0.005556
  0.473684  0.473684  0.000000      0.005556
  0.447368  0.447368  0.000000      0.005556
  0.421053  0.421053  0.000000      0.005556
  0.394737  0.394737  0.000000      0.005556
  0.368421  0.368421  0.000000      0.005556
  0.342105  0.342105  0.000000      0.005556
  0.315789  0.315789  0.000000      0.005556
  0.289474  0.289474  0.000000      0.005556
  0.263158  0.263158  0.000000      0.005556
  0.236842  0.236842  0.000000      0.005556
  0.210526  0.210526  0.000000      0.005556
  0.184211  0.184211  0.000000      0.005556
  0.157895  0.157895  0.000000      0.005556
  0.131579  0.131579  0.000000      0.005556
  0.105263  0.105263  0.000000      0.005556
  0.078947  0.078947  0.000000      0.005556
  0.052632  0.052632  0.000000      0.005556
  0.026316  0.026316  0.000000      0.005556
  0.000000  0.000000  0.000000      0.005556
[...]
  0.500000  0.500000  0.131579      0.005556
  0.500000  0.500000  0.157895      0.005556
  0.500000  0.500000  0.184211      0.005556
  0.500000  0.500000  0.210526      0.005556
  0.500000  0.500000  0.236842      0.005556
  0.500000  0.500000  0.263158      0.005556
  0.500000  0.500000  0.289474      0.005556
[...]
 k-point   172 :   0.5000 0.5000 0.2895  plane waves:    6944
 k-point   173 :   0.5000 0.5000 0.3158  plane waves:    6932
 k-point   174 :   0.5000 0.5000 0.3421  plane waves:    6936
 k-point   175 :   0.5000 0.5000 0.3684  plane waves:    6928
 k-point   176 :   0.5000 0.5000 0.3947  plane waves:    6928
 k-point   177 :   0.5000 0.5000 0.4211  plane waves:    6920
 k-point   178 :   0.5000 0.5000 0.4474  plane waves:    6928
 k-point   179 :   0.5000 0.5000 0.4737  plane waves:    6928
 k-point   180 :   0.5000 0.5000 0.5000  plane waves:    6928

 maximum and minimum number of plane-waves per node :      7042     6908

 maximum number of plane-waves:      7042
 maximum index in each direction:
   IXMAX=   10   IYMAX=   10   IZMAX=   15
   IXMIN=  -10   IYMIN=  -11   IZMIN=  -15

 serial   3D FFT for wavefunctions
 parallel 3D FFT for charge:
    minimum data exchange during FFTs selected (reduces bandwidth)

 initial charge density was supplied:
 number of electron     119.9999793 magnetization
 keeping initial charge density in first step

 Maximum index for augmentation-charges          455 (set IRDMAX)

 First call to EWALD:  gamma=   0.278
 Maximum number of real-space cells   3x   3x   2
 Maximum number of reciprocal cells   2x   2x   3

--------------------------------------- Ionic step        1  -------------------------------------------

--------------------------------------- Iteration      1(   1)  ---------------------------------------

 eigenvalue-minimisations  : 52864
 total energy-change (2. order) :-0.9835464E+02  (-0.6519503E-07)
 number of electron     119.9999793 magnetization
 augmentation part      119.9999793 magnetization

 Free energy of the ion-electron system (eV)
  alpha Z        PSCENC =       302.45033193
  Ewald energy   TEWEN  =     -8685.12768637
  -Hartree energ DENC   =     -3930.14505695
  -exchange      EXHF   =         0.00000000
  -V(xc)+E(xc)   XCENC  =       279.29652063
  PAW double counting   =     13277.44161293   -12838.39576300
  entropy T*S    EENTRO =         0.01179001
  eigenvalues    EBANDS =     -1636.87394782
  atomic energy  EATOM  =     13132.98755513
  Solvation  Ediel_sol  =         0.00000000
  free energy    TOTEN  =       -98.35464351 eV

  energy without entropy =      -98.36643353  energy(sigma->0) =      -98.35857352

--------------------------------------- Iteration      1(   2)  ---------------------------------------

 eigenvalue-minimisations  : 37184
 total energy-change (2. order) :-0.1171065E-07  (-0.1103589E-07)
 number of electron     119.9999793 magnetization
 augmentation part      119.9999793 magnetization

 Free energy of the ion-electron system (eV)
  alpha Z        PSCENC =       302.45033193
  Ewald energy   TEWEN  =     -8685.12768637
  -Hartree energ DENC   =     -3930.14505695
  -exchange      EXHF   =         0.00000000
  -V(xc)+E(xc)   XCENC  =       279.29652063
  PAW double counting   =     13277.44161293   -12838.39576300
  entropy T*S    EENTRO =         0.01179001
  eigenvalues    EBANDS =     -1636.87394783
  atomic energy  EATOM  =     13132.98755513
  Solvation  Ediel_sol  =         0.00000000
  free energy    TOTEN  =       -98.35464352 eV

  energy without entropy =      -98.36643354  energy(sigma->0) =      -98.35857353

 average (electrostatic) potential at core
  the test charge radii are     1.0397  1.0406
  (the norm of the test charge is              1.0000)
       1 -72.2916       2 -72.2916       3 -72.2916       4 -72.2916       5 -72.2916
       6 -72.2916       7 -72.2916       8 -72.2916       9 -71.3282      10 -71.3282
      11 -71.3282      12 -71.3282      13 -71.3282      14 -71.3282      15 -71.3282
      16 -71.3282

 E-fermi :   8.2649     XC(G=0): -11.0388     alpha+bet :-16.2322

 val. band max:        8.2641446088   @ k =   0.4737   0.4737   0.5000
 cond. band min:       8.2685557467   @ k =   0.0000   0.0000   0.3421
 fundamental gap:      0.0044111379
 Fermi energy:         8.2648734649

 k-point     1 :       0.0000    0.0000    0.0000
  band No.  band energies     occupation
      1     -48.3014      2.00000
      2     -48.3008      2.00000
      3     -48.2439      2.00000
      4     -48.2439      2.00000
      5     -48.2434      2.00000
      6     -48.2434      2.00000
      7     -48.1885      2.00000
      8     -48.1881      2.00000
      9     -24.7265      2.00000
     10     -24.7265      2.00000
     11     -24.7238      2.00000
     12     -24.7238      2.00000
     13     -24.7143      2.00000
     14     -24.6970      2.00000
     15     -24.6595      2.00000
     16     -24.6595      2.00000
     17     -24.6581      2.00000
     18     -24.6581      2.00000
     19     -24.6523      2.00000
     20     -24.6523      2.00000
     21     -24.6398      2.00000
     22     -24.6398      2.00000
     23     -24.5976      2.00000
     24     -24.5869      2.00000
     25     -24.2551      2.00000
     26     -24.2551      2.00000
     27     -24.2546      2.00000
     28     -24.2546      2.00000
     29     -24.2136      2.00000
     30     -24.2136      2.00000
     31     -24.2130      2.00000
     32     -24.2130      2.00000
     33      -0.7127      2.00000
     34       0.7641      2.00000
     35       3.0640      2.00000
     36       3.4100      2.00000
     37       3.4100      2.00000
     38       3.7561      2.00000
     39       3.7561      2.00000
     40       3.7936      2.00000
     41       3.7936      2.00000
     42       5.1439      2.00000
     43       5.3922      2.00000
     44       5.3922      2.00000
     45       5.8284      2.00000
     46       6.0606      2.00000
     47       6.0606      2.00000
     48       6.4711      2.00000
     49       6.6386      2.00000
     50       6.6386      2.00000
     51       7.1276      2.00000
     52       7.1276      2.00000
     53       7.1736      2.00000
     54       7.1736      2.00000
     55       7.4811      2.00000
     56       7.6516      2.00000
     57       7.8495      2.00000
     58       7.8495      2.00000
     59       7.9146      2.00001
     60       7.9888      2.00067
[...]
    114      18.6683      0.00000
    115      19.0549      0.00000
    116      19.0549      0.00000
    117      19.3889      0.00000
    118      19.3889      0.00000
    119      19.9484      0.00000
    120      20.5528      0.00000
    121      20.5528      0.00000
    122      20.5732      0.00000
    123      20.5732      0.00000
    124      20.9727      0.00000
    125      20.9766      0.00000
    126      20.9766      0.00000
    127      21.0255      0.00000
    128      21.0255      0.00000

[...]

 k-point   180 :       0.5000    0.5000    0.5000
  band No.  band energies     occupation
      1     -48.2444      2.00000
      2     -48.2444      2.00000
      3     -48.2444      2.00000
      4     -48.2444      2.00000
      5     -48.2444      2.00000
      6     -48.2444      2.00000
      7     -48.2444      2.00000
      8     -48.2444      2.00000
      9     -24.6477      2.00000
     10     -24.6477      2.00000
     11     -24.6477      2.00000
     12     -24.6477      2.00000
     13     -24.6477      2.00000
     14     -24.6477      2.00000
     15     -24.6477      2.00000
     16     -24.6477      2.00000
     17     -24.4732      2.00000
     18     -24.4732      2.00000
     19     -24.4732      2.00000
     20     -24.4732      2.00000
     21     -24.4732      2.00000
     22     -24.4732      2.00000
     23     -24.4732      2.00000
     24     -24.4732      2.00000
     25     -24.4592      2.00000
     26     -24.4592      2.00000
     27     -24.4592      2.00000
     28     -24.4592      2.00000
     29     -24.4592      2.00000
     30     -24.4592      2.00000
     31     -24.4592      2.00000
     32     -24.4592      2.00000
     33       2.0031      2.00000
     34       2.0031      2.00000
     35       2.0031      2.00000
     36       2.0031      2.00000
     37       2.0031      2.00000
     38       2.0031      2.00000
     39       2.0031      2.00000
     40       2.0031      2.00000
     41       6.2495      2.00000
     42       6.2495      2.00000
     43       6.2495      2.00000
     44       6.2495      2.00000
     45       6.2495      2.00000
     46       6.2495      2.00000
     47       6.2495      2.00000
     48       6.2495      2.00000
     49       7.9187      2.00001
     50       7.9187      2.00001
     51       7.9187      2.00001
     52       7.9187      2.00001
     53       7.9187      2.00001
     54       7.9187      2.00001
     55       7.9187      2.00001
     56       7.9187      2.00001
     57       8.3072      0.34970
     58       8.3072      0.34970
     59       8.3072      0.34970
     60       8.3072      0.34970
[...]
    114      18.7058      0.00000
    115      18.7058      0.00000
    116      18.7058      0.00000
    117      18.7058      0.00000
    118      18.7058      0.00000
    119      18.7058      0.00000
    120      18.7058      0.00000
    121      18.7961      0.00000
    122      18.7961      0.00000
    123      18.7961      0.00000
    124      18.7961      0.00000
    125      18.7961      0.00000
    126      18.7961      0.00000
    127      18.7961      0.00000
    128      18.7961      0.00000

 soft charge-density along one line, spin component           1
         0         1         2         3         4         5         6         7         8         9
 total charge-density along one line

------------------------ aborting loop because EDIFF is reached ----------------------------------------

 total charge

# of ion       s       p       d       tot
    1        2.199   6.119   1.948  10.266
    2        2.199   6.119   1.948  10.266
    3        2.199   6.119   1.948  10.266
    4        2.199   6.119   1.948  10.266
    5        2.199   6.119   1.948  10.266
    6        2.199   6.119   1.948  10.266
    7        2.199   6.119   1.948  10.266
    8        2.199   6.119   1.948  10.266
    9        0.407   0.424   0.000   0.831
   10        0.407   0.424   0.000   0.831
   11        0.407   0.424   0.000   0.831
   12        0.407   0.424   0.000   0.831
   13        0.407   0.424   0.000   0.831
   14        0.407   0.424   0.000   0.831
   15        0.407   0.424   0.000   0.831
   16        0.407   0.424   0.000   0.831
tot         20.847  52.345  15.586  88.778

  FORCE on cell =-STRESS in cart. coord.  units (eV):
  Direction    XX          YY          ZZ          XY          YZ          ZX
  Alpha Z   302.45033   302.45033   302.45033
  Ewald   -2316.54182 -2316.54182 -4052.05886    -0.00000    -0.00000    -0.00000
  Hartree  1807.14722  1807.14722   305.54664    -0.00000    -0.00000    -0.00000
  E(xc)    -576.62278  -576.62278  -578.20656    -0.00000     0.00000     0.00000
  Local   -1129.73791 -1129.73791  2134.78595    -0.00000     0.00000     0.00000
  n-local  -141.02238  -111.13898   -73.12015    -1.63515    -0.00000     0.00000
  augment   493.62072   493.62072   473.48743     0.00000    -0.00000     0.00000
  Kinetic  1563.41400  1535.65470  1480.40911     0.61651    -0.00000     0.00000
  Fock        0.00000     0.00000     0.00000     0.00000     0.00000     0.00000
  Total       3.76944     3.76944    -6.70612     0.00000     0.00000     0.00000
  in kB      23.27993    23.27993   -41.41681     0.00000     0.00000     0.00000

 VOLUME and BASIS-vectors are now :
  energy-cutoff  :      520.00
  volume of cell :      259.42
      direct lattice vectors                 reciprocal lattice vectors
     5.650681772  0.000000000  0.000000000     0.176969796  0.000000000  0.000000000
     0.000000000  5.650681772  0.000000000     0.000000000  0.176969796  0.000000000
     0.000000000  0.000000000  8.124629189     0.000000000  0.000000000  0.123082540

  length of vectors
     5.650681772  5.650681772  8.124629189     0.176969796  0.176969796  0.123082540

 FORCES acting on ions
    electron-ion (+dipol)            ewald-force                    non-local-force                 convergence-correction
   0.226E-14 -.124E-15 -.481E-13   0.103E-13 -.178E-14 -.178E-13   0.331E-23 -.165E-22 -.672E-24   0.372E-13 -.101E-12 -.280E-12
   0.226E-14 -.124E-15 0.106E-11   0.102E-13 -.178E-14 0.178E-13   0.000E+00 0.199E-22 0.662E-23   0.185E-13 0.586E-14 -.231E-12
   0.226E-14 0.394E-12 -.446E-13   0.103E-13 -.613E-14 -.178E-13   0.132E-22 0.108E-22 0.132E-22   0.716E-13 -.142E-12 -.314E-12
   0.226E-14 0.394E-12 0.106E-11   0.952E-14 -.613E-14 0.178E-13   -.703E-23 0.232E-22 -.331E-23   0.206E-13 -.502E-14 -.223E-12
   0.397E-12 -.903E-15 -.678E-11   -.380E-13 0.613E-14 -.178E-13   0.662E-23 -.993E-23 -.662E-23   -.938E-13 0.114E-12 -.210E-12
   0.397E-12 -.903E-15 0.430E-11   -.378E-13 0.613E-14 0.178E-13   0.248E-23 0.165E-22 0.122E-22   -.783E-13 0.993E-13 -.338E-12
   0.397E-12 0.393E-12 -.199E-11   -.380E-13 0.178E-14 -.178E-13   -.199E-22 -.145E-22 0.000E+00   -.210E-12 -.219E-13 -.296E-12
   0.397E-12 0.393E-12 0.249E-11   -.372E-13 0.178E-14 0.178E-13   0.385E-22 0.165E-23 0.149E-22   -.894E-13 0.807E-13 -.313E-12
   0.203E-14 -.565E-14 -.296E-12   0.214E-13 0.899E-16 -.131E-14   -.165E-23 0.000E+00 -.485E-23   0.413E-14 -.154E-14 0.708E-13
   0.197E-14 -.554E-14 -.284E-12   0.208E-13 0.849E-16 0.139E-14   -.827E-24 0.227E-23 0.103E-23   -.641E-14 -.117E-14 -.971E-14
   0.234E-14 -.173E-13 -.266E-12   0.211E-13 -.389E-15 -.132E-14   -.165E-23 -.290E-23 0.165E-23   0.187E-14 0.625E-14 0.732E-13
   0.232E-14 -.157E-13 -.255E-12   0.206E-13 -.394E-15 0.138E-14   -.124E-23 -.290E-23 0.165E-23   -.678E-14 0.124E-14 -.109E-13
   -.125E-13 0.633E-12 0.453E-12   0.634E-14 0.504E-15 -.138E-14   0.414E-24 0.207E-24 -.165E-23   -.116E-14 -.775E-14 0.526E-13
   -.118E-13 -.165E-13 0.780E-12   0.687E-14 0.499E-15 0.132E-14   0.248E-23 0.165E-23 0.000E+00   0.894E-14 -.368E-14 -.324E-13
   -.118E-13 0.447E-12 0.691E-13   0.655E-14 0.251E-16 -.139E-14   0.827E-24 -.290E-23 -.827E-23   0.230E-14 0.106E-13 0.613E-13
   -.126E-13 0.458E-12 0.445E-12   0.709E-14 0.201E-16 0.131E-14   0.248E-23 -.372E-23 0.000E+00   0.945E-14 0.381E-15 -.353E-13
   0.156E-11 0.305E-11 0.696E-12   0.114E-15 0.440E-15 -.394E-30   0.381E-22 0.227E-22 0.259E-22   -.311E-12 0.352E-13 -.204E-11

 POSITION                                       TOTAL-FORCE (eV/Angst)
      0.00000      0.00000      0.00000         0.000000     -0.000000      0.000000
      0.00000      0.00000      4.06231        -0.000000      0.000000     -0.000000
      0.00000      2.82534      0.00000         0.000000     -0.000000     -0.000000
      0.00000      2.82534      4.06231         0.000000     -0.000000     -0.000000
      2.82534      0.00000      0.00000         0.000000     -0.000000     -0.000000
      2.82534      0.00000      4.06231        -0.000000     -0.000000     -0.000000
      2.82534      2.82534      0.00000        -0.000000     -0.000000      0.000000
      2.82534      2.82534      4.06231         0.000000      0.000000     -0.000000
      1.41267      1.41267      2.03116        -0.000000      0.000000      0.000000
      1.41267      1.41267      6.09347        -0.000000      0.000000      0.000000
      1.41267      4.23801      2.03116        -0.000000     -0.000000      0.000000
      1.41267      4.23801      6.09347         0.000000     -0.000000     -0.000000
      4.23801      1.41267      2.03116         0.000000      0.000000      0.000000
      4.23801      1.41267      6.09347        -0.000000      0.000000      0.000000
      4.23801      4.23801      2.03116        -0.000000     -0.000000      0.000000
      4.23801      4.23801      6.09347         0.000000     -0.000000      0.000000
    total drift:                                0.000000      0.000000     -0.000000

  FREE ENERGIE OF THE ION-ELECTRON SYSTEM (eV)
  free  energy   TOTEN  =       -98.35464352 eV

  energy  without entropy=      -98.36643354  energy(sigma->0) =      -98.35857353

 writing wavefunctions

 total charge

# of ion       s       p       d       tot
    1        2.199   6.119   1.948  10.266
    2        2.199   6.119   1.948  10.266
    3        2.199   6.119   1.948  10.266
    4        2.199   6.119   1.948  10.266
    5        2.199   6.119   1.948  10.266
    6        2.199   6.119   1.948  10.266
    7        2.199   6.119   1.948  10.266
    8        2.199   6.119   1.948  10.266
    9        0.407   0.424   0.000   0.831
   10        0.407   0.424   0.000   0.831
   11        0.407   0.424   0.000   0.831
   12        0.407   0.424   0.000   0.831
   13        0.407   0.424   0.000   0.831
   14        0.407   0.424   0.000   0.831
   15        0.407   0.424   0.000   0.831
   16        0.407   0.424   0.000   0.831
tot         20.847  52.345  15.586  88.778