 vasp.6.5.0 16Dec24 (build Apr 17 2025 17:55:45) complex

 executed on             LinuxIFC date 2025.07.14  12:48:03

 INCAR:
   ISTART = 0
   ICHARG = 2
   PREC = N
   LREAL = .FALSE.
   ENCUT = 520
   ALGO = N
   NELM = 500
   EDIFF = 1E-05
   IBRION = -1
   ISIF = 3
   NSW = 0
   EDIFFG = -0.01
   ISMEAR = 1
   SIGMA = 0.1
   LVHAR = .TRUE.
   LVTOT = .TRUE.

 POTCAR:    PAW_PBE Ti_sv 26Sep2005
 POTCAR:    PAW_PBE Al 04Jan2001
|           W    W    AA    RRRRR   N    N  II  N    N   GGGG   !!!           |
|           W    W   A  A   R    R  NN   N  II  NN   N  G    G  !!!           |
|           W    W  A    A  R    R  N N  N  II  N N  N  G       !!!           |
|           W WW W  AAAAAA  RRRRR   N  N N  II  N  N N  G  GGG   !            |
|           WW  WW  A    A  R   R   N   NN  II  N   NN  G    G                |
|           W    W  A    A  R    R  N    N  II  N    N   GGGG   !!!           |
|     For optimal performance we recommend to set                             |
|       NCORE = 2 up to number-of-cores-per-socket                            |
|     This setting can greatly improve the performance of VASP for DFT.       |
|     The default, NCORE=1 might be grossly inefficient on modern             |
|     multi-core architectures or massively parallel machines. Do your        |
|     Unfortunately you need to use the default for GW and RPA                |
|     calculations (for HF NCORE is supported but not extensively tested      |
|     yet).                                                                   |

   TITEL  = PAW_PBE Ti_sv 26Sep2005
   POMASS =   47.880; ZVAL   =   12.000    mass and valenz
   ENMAX  =  274.610; ENMIN  =  205.957 eV

   TITEL  = PAW_PBE Al 04Jan2001
   POMASS =   26.981; ZVAL   =    3.000    mass and valenz
   ENMAX  =  240.300; ENMIN  =  180.225 eV

  PAW_PBE Ti_sv 26Sep2005               :
  PAW_PBE Al 04Jan2001                  :

 POSCAR: 0000065828-primitive-cell\(1\0\0)
  positions in direct lattice

 exchange-correlation table for PE
   RHO(1)=    0.500       N(1)  =     2000
   RHO(2)=  100.500       N(2)  =     4000

 ion  position               nearest neighbor table
   1  0.000  0.000  0.338-   2 2.82   6 2.85   6 2.85   6 2.85   6 2.85   5 2.85   5 2.85   5 2.85
                             5 2.85
   2  0.000  0.000  0.452-   3 2.82   1 2.82   7 2.85   7 2.85   7 2.85   7 2.85   6 2.85   6 2.85
                             6 2.85   6 2.85
   3  0.000  0.000  0.565-   4 2.82   2 2.82   8 2.85   8 2.85   8 2.85   8 2.85   7 2.85   7 2.85
                             7 2.85   7 2.85
   4  0.000  0.000  0.678-   3 2.82   8 2.85   8 2.85   8 2.85   8 2.85
   5  0.500  0.500  0.281-   6 2.82   1 2.85   1 2.85   1 2.85   1 2.85
   6  0.500  0.500  0.395-   5 2.82   7 2.82   1 2.85   1 2.85   1 2.85   1 2.85   2 2.85   2 2.85
                             2 2.85   2 2.85
   7  0.500  0.500  0.508-   8 2.82   6 2.82   2 2.85   2 2.85   2 2.85   2 2.85   3 2.85   3 2.85
                             3 2.85   3 2.85
   8  0.500  0.500  0.622-   7 2.82   3 2.85   3 2.85   3 2.85   3 2.85   4 2.85   4 2.85   4 2.85
                             4 2.85

  LATTYP: Found a simple orthorhombic cell.
 ALAT       =     2.8238000870
 B/A-ratio  =     1.4414264384
 C/A-ratio  =     8.8120260630

  Lattice vectors:

 A1 = (   2.8238000870,   0.0000000000,   0.0000000000)
 A2 = (   0.0000000000,   4.0703001022,   0.0000000000)
 A3 = (   0.0000000000,   0.0000000000,  24.8833999634)

Analysis of symmetry for initial positions (statically):
 Subroutine PRICEL returns:
 Original cell was already a primitive cell.

 Routine SETGRP: Setting up the symmetry group for a
 simple orthorhombic supercell.

 Subroutine GETGRP returns: Found  4 space group operations
 (whereof  4 operations were pure point group operations)
 out of a pool of  8 trial point group operations.

The static configuration has the point symmetry C_2v.

Analysis of symmetry for dynamics (positions and initial velocities):
 Subroutine PRICEL returns:
 Original cell was already a primitive cell.

 Routine SETGRP: Setting up the symmetry group for a
 simple orthorhombic supercell.

 Subroutine GETGRP returns: Found  4 space group operations
 (whereof  4 operations were pure point group operations)
 out of a pool of  8 trial point group operations.

The dynamic configuration has the point symmetry C_2v.

 Subroutine INISYM returns: Found  4 space group operations
 (whereof  4 operations are pure point group operations),
 and found     1 'primitive' translations

                                     Primitive cell

  volume of cell :     286.0027

  direct lattice vectors                    reciprocal lattice vectors
     2.823800087  0.000000000  0.000000000     0.354132718  0.000000000  0.000000000
     0.000000000  4.070300102  0.000000000     0.000000000  0.245682130  0.000000000
     0.000000000  0.000000000 24.883399963     0.000000000  0.000000000  0.040187434

  length of vectors
     2.823800087  4.070300102 24.883399963     0.354132718  0.245682130  0.040187434

  position of ions in fractional coordinates (direct lattice)
     0.000000000  0.000000000  0.338050008
     0.000000000  0.000000000  0.451539993
     0.000000000  0.000000000  0.565020025
     0.000000000  0.000000000  0.678499997
     0.500000000  0.500000000  0.281309992
     0.500000000  0.500000000  0.394789994
     0.500000000  0.500000000  0.508279979
     0.500000000  0.500000000  0.621760011

  ion indices of the primitive-cell ions
   primitive index   ion index
                 1           1
                 2           2
                 3           3
                 4           4
                 5           5
                 6           6
                 7           7
                 8           8

 KPOINTS: K-Spacing Value to Generate K-Mesh: 0.04

Automatic generation of k-mesh.
 Grid dimensions read from file:
 generate k-points for:    9    6    1

 Generating k-lattice:

  Cartesian coordinates                     Fractional coordinates (reciprocal lattice)
     0.039348080  0.000000000  0.000000000     0.111111111  0.000000000  0.000000000
     0.000000000  0.040947022  0.000000000     0.000000000  0.166666667  0.000000000
     0.000000000  0.000000000  0.040187434     0.000000000  0.000000000  1.000000000

  Length of vectors
     0.039348080  0.040947022  0.040187434

  Shift w.r.t. Gamma in fractional coordinates (k-lattice)
     0.000000000  0.000000000  0.000000000

 Subroutine IBZKPT returns following result:

 Found     20 irreducible k-points:

 Following reciprocal coordinates:
            Coordinates               Weight
  0.000000  0.000000  0.000000      1.000000
  0.111111  0.000000  0.000000      2.000000
  0.222222  0.000000  0.000000      2.000000
  0.333333  0.000000  0.000000      2.000000
  0.444444  0.000000  0.000000      2.000000
  0.000000  0.166667  0.000000      2.000000
  0.111111  0.166667  0.000000      4.000000
  0.222222  0.166667  0.000000      4.000000
  0.333333  0.166667  0.000000      4.000000
  0.444444  0.166667  0.000000      4.000000
  0.000000  0.333333  0.000000      2.000000
  0.111111  0.333333  0.000000      4.000000
  0.222222  0.333333  0.000000      4.000000
  0.333333  0.333333  0.000000      4.000000
  0.444444  0.333333  0.000000      4.000000
  0.000000  0.500000  0.000000      1.000000
  0.111111  0.500000  0.000000      2.000000
  0.222222  0.500000  0.000000      2.000000
  0.333333  0.500000  0.000000      2.000000
  0.444444  0.500000  0.000000      2.000000

 Following cartesian coordinates:
            Coordinates               Weight
  0.000000  0.000000  0.000000      1.000000
  0.039348  0.000000  0.000000      2.000000
  0.078696  0.000000  0.000000      2.000000
  0.118044  0.000000  0.000000      2.000000
  0.157392  0.000000  0.000000      2.000000
  0.000000  0.040947  0.000000      2.000000
  0.039348  0.040947  0.000000      4.000000
  0.078696  0.040947  0.000000      4.000000
  0.118044  0.040947  0.000000      4.000000
  0.157392  0.040947  0.000000      4.000000
  0.000000  0.081894  0.000000      2.000000
  0.039348  0.081894  0.000000      4.000000
  0.078696  0.081894  0.000000      4.000000
  0.118044  0.081894  0.000000      4.000000
  0.157392  0.081894  0.000000      4.000000
  0.000000  0.122841  0.000000      1.000000
  0.039348  0.122841  0.000000      2.000000
  0.078696  0.122841  0.000000      2.000000
  0.118044  0.122841  0.000000      2.000000
  0.157392  0.122841  0.000000      2.000000

 SYSTEM =  unknown system
 POSCAR =  0000065828-primitive-cell\(1\0\0)

 Startparameter for this run:
   NWRITE =      2    write-flag & timer
   PREC   = n         normal or accurate (medium, high low for compatibility)
   ISTART =      0    job   : 0-new  1-cont  2-samecut
   ICHARG =      2    charge: 1-file 2-atom 10-const
   ISPIN  =      1    spin polarized calculation?
   LNONCOLLINEAR =      F non collinear calculations
   LSORBIT =      F    spin-orbit coupling
   INIWAV =      1    electr: 0-lowe 1-rand  2-diag
   LASPH  =      F    aspherical Exc in radial PAW
 Electronic Relaxation 1
   ENCUT  =  520.0 eV  38.22 Ry    6.18 a.u.   5.25  7.57 46.27*2*pi/ulx,y,z
   ENINI  =  520.0     initial cutoff
   ENAUG  =  482.8 eV  augmentation charge cutoff
   NELM   =    500;   NELMIN=  2; NELMDL= -5     # of ELM steps
   EDIFF  = 0.1E-04   stopping-criterion for ELM
   LREAL  =      F    real-space projection
   NLSPLINE    = F    spline interpolate recip. space projectors
   LCOMPAT=      F    compatible to vasp.4.4
   GGA_COMPAT  = T    GGA compatible to vasp.4.4-vasp.4.6
   LMAXPAW     = -100 max onsite density
   LMAXMIX     =    2 max onsite mixed and CHGCAR
   VOSKOWN=      0    Vosko Wilk Nusair interpolation
   ROPT   =    0.00000   0.00000
 Ionic relaxation
   EDIFFG = -.1E-01   stopping-criterion for IOM
   NSW    =      0    number of steps for IOM
   NBLOCK =      1;   KBLOCK =      1    inner block; outer block
   IBRION =     -1    ionic relax: 0-MD 1-quasi-New 2-CG
   NFREE  =      0    steps in history (QN), initial steepest desc. (CG)
   ISIF   =      3    stress and relaxation
   IWAVPR =     10    prediction:  0-non 1-charg 2-wave 3-comb
   ISYM   =      2    0-nonsym 1-usesym 2-fastsym
   LCORR  =      T    Harris-Foulkes like correction to forces

   POTIM  = 0.5000    time-step for ionic-motion
   TEIN   =    0.0    initial temperature
   TEBEG  =    0.0;   TEEND  =   0.0 temperature during run
   SMASS  =  -3.00    Nose mass-parameter (am)
   estimated Nose-frequenzy (Omega)   =  0.10E-29 period in steps = 0.13E+47 mass=  -0.182E-27a.u.
   SCALEE = 1.0000    scale energy and forces
   NPACO  =    256;   APACO  = 10.0  distance and # of slots for P.C.
   PSTRESS=    0.0 pullay stress

  Mass of Ions in am
   POMASS =  47.88 26.98
  Ionic Valenz
   ZVAL   =  12.00  3.00
  Atomic Wigner-Seitz radii
  virtual crystal weights
   VCA    =   1.00  1.00
   NELECT =      60.0000    total number of electrons
   NUPDOWN=      -1.0000    fix difference up-down

 DOS related values:
   EMIN   =  10.00;   EMAX   =-10.00  energy-range for DOS
   EFERMI =   0.00;   METHOD = LEGACY
[...]
   0.03934808  0.08189404  0.00000000       0.074
   0.07869616  0.08189404  0.00000000       0.074
   0.11804424  0.08189404  0.00000000       0.074
   0.15739232  0.08189404  0.00000000       0.074
   0.00000000  0.12284107  0.00000000       0.019
   0.03934808  0.12284107  0.00000000       0.037
   0.07869616  0.12284107  0.00000000       0.037
   0.11804424  0.12284107  0.00000000       0.037
   0.15739232  0.12284107  0.00000000       0.037

 k-points in reciprocal lattice and weights: K-Spacing Value to Generate K-Mesh: 0.04
   0.00000000  0.00000000  0.00000000       0.019
   0.11111111  0.00000000  0.00000000       0.037
   0.22222222  0.00000000  0.00000000       0.037
   0.33333333  0.00000000  0.00000000       0.037
   0.44444444  0.00000000  0.00000000       0.037
   0.00000000  0.16666667  0.00000000       0.037
   0.11111111  0.16666667  0.00000000       0.074
   0.22222222  0.16666667  0.00000000       0.074
   0.33333333  0.16666667  0.00000000       0.074
   0.44444444  0.16666667  0.00000000       0.074
   0.00000000  0.33333333  0.00000000       0.037
   0.11111111  0.33333333  0.00000000       0.074
   0.22222222  0.33333333  0.00000000       0.074
   0.33333333  0.33333333  0.00000000       0.074
   0.44444444  0.33333333  0.00000000       0.074
   0.00000000  0.50000000  0.00000000       0.019
   0.11111111  0.50000000  0.00000000       0.037
   0.22222222  0.50000000  0.00000000       0.037
   0.33333333  0.50000000  0.00000000       0.037
   0.44444444  0.50000000  0.00000000       0.037

 position of ions in fractional coordinates (direct lattice)
   0.00000000  0.00000000  0.33805001
   0.00000000  0.00000000  0.45153999
   0.00000000  0.00000000  0.56502003
   0.00000000  0.00000000  0.67850000
   0.50000000  0.50000000  0.28130999
   0.50000000  0.50000000  0.39478999
   0.50000000  0.50000000  0.50827998
   0.50000000  0.50000000  0.62176001

 position of ions in cartesian coordinates  (Angst):
   0.00000000  0.00000000  8.41183356
   0.00000000  0.00000000 11.23585025
   0.00000000  0.00000000 14.05961927
   0.00000000  0.00000000 16.88338680
   1.41190004  2.03515005  6.99994904
   1.41190004  2.03515005  9.82371732
   1.41190004  2.03515005 12.64773401
   1.41190004  2.03515005 15.47150303

 k-point     1 :   0.0000 0.0000 0.0000  plane waves:    7697
 k-point     2 :   0.1111 0.0000 0.0000  plane waves:    7725
 k-point     3 :   0.2222 0.0000 0.0000  plane waves:    7709
 k-point     4 :   0.3333 0.0000 0.0000  plane waves:    7738
 k-point     5 :   0.4444 0.0000 0.0000  plane waves:    7722
 k-point     6 :   0.0000 0.1667 0.0000  plane waves:    7723
 k-point     7 :   0.1111 0.1667 0.0000  plane waves:    7695
 k-point     8 :   0.2222 0.1667 0.0000  plane waves:    7695
 k-point     9 :   0.3333 0.1667 0.0000  plane waves:    7713
 k-point    10 :   0.4444 0.1667 0.0000  plane waves:    7719
 k-point    11 :   0.0000 0.3333 0.0000  plane waves:    7709
 k-point    12 :   0.1111 0.3333 0.0000  plane waves:    7719
 k-point    13 :   0.2222 0.3333 0.0000  plane waves:    7685
 k-point    14 :   0.3333 0.3333 0.0000  plane waves:    7677
 k-point    15 :   0.4444 0.3333 0.0000  plane waves:    7694
 k-point    16 :   0.0000 0.5000 0.0000  plane waves:    7668
 k-point    17 :   0.1111 0.5000 0.0000  plane waves:    7722
 k-point    18 :   0.2222 0.5000 0.0000  plane waves:    7642
 k-point    19 :   0.3333 0.5000 0.0000  plane waves:    7648
 k-point    20 :   0.4444 0.5000 0.0000  plane waves:    7704

 maximum and minimum number of plane-waves per node :      7738     7642

 maximum number of plane-waves:      7738
 maximum index in each direction:
   IXMAX=    5   IYMAX=    7   IZMAX=   46
   IXMIN=   -5   IYMIN=   -8   IZMIN=  -46

 serial   3D FFT for wavefunctions
 parallel 3D FFT for charge:
    minimum data exchange during FFTs selected (reduces bandwidth)

 Broyden mixing: mesh for mixing (old mesh)
   NGX = 11   NGY = 15   NGZ = 93
  (NGX  = 32   NGY  = 48   NGZ  =280)
  gives a total of  15345 points

 initial charge density was supplied:
 charge density of overlapping atoms calculated
 number of electron      60.0000000 magnetization
 keeping initial charge density in first step

 Maximum index for augmentation-charges          454 (set IRDMAX)

 First call to EWALD:  gamma=   0.269
 Maximum number of real-space cells   6x   4x   1
 Maximum number of reciprocal cells   1x   2x   9

--------------------------------------- Ionic step        1  -------------------------------------------

--------------------------------------- Iteration      1(   1)  ---------------------------------------

 eigenvalue-minimisations  :  2560
 total energy-change (2. order) : 0.1898735E+03  (-0.3531452E+04)
 number of electron      60.0000000 magnetization
 augmentation part       60.0000000 magnetization

 Free energy of the ion-electron system (eV)
  alpha Z        PSCENC =        68.58501286
  Ewald energy   TEWEN  =     13676.75659593
  -Hartree energ DENC   =    -19492.05798972
  -exchange      EXHF   =         0.00000000
  -V(xc)+E(xc)   XCENC  =       141.57047788
  PAW double counting   =      5323.06139147    -5116.90369196
  entropy T*S    EENTRO =         0.00537607
  eigenvalues    EBANDS =      -977.63745392
  atomic energy  EATOM  =      6566.49377757
  Solvation  Ediel_sol  =         0.00000000
  free energy    TOTEN  =       189.87349618 eV

  energy without entropy =      189.86812010  energy(sigma->0) =      189.87170415

[...]

 eigenvalue-minimisations  :  3584
 total energy-change (2. order) :-0.2345581E+03  (-0.2342847E+03)
 number of electron      60.0000000 magnetization
 augmentation part       60.0000000 magnetization

[...]

 Broyden mixing:
  rms(total) = 0.19505E+01    rms(broyden)= 0.19505E+01
  rms(prec ) = 0.22622E+01
  weight for this iteration     100.00

[...]

 eigenvalues of (default mixing * dielectric matrix)
  average eigenvalue GAMMA=   0.2337
  0.2337

[...]

 eigenvalue-minimisations  :  4608
 total energy-change (2. order) : 0.1203092E-02  (-0.1255598E-02)
 number of electron      59.9999981 magnetization
 augmentation part       14.7067706 magnetization

[...]

 Broyden mixing:
  rms(total) = 0.59507E-04    rms(broyden)= 0.59497E-04
  rms(prec ) = 0.78665E-04
  weight for this iteration     100.00

 eigenvalues of (default mixing * dielectric matrix)
  average eigenvalue GAMMA=   1.7319
  7.7876  5.5502  2.8731  2.6899  2.2025  2.2025  1.8994  1.4572  0.1007  0.2008
  0.2008  1.2034  0.4507  0.4733  1.0303  1.0303  0.6760  0.8956  0.8956  0.8190

[...]

--------------------------------------- Iteration      1(  26)  ---------------------------------------

 eigenvalue-minimisations  :  3264
 total energy-change (2. order) :-0.8810363E-05  (-0.6922053E-07)
 number of electron      59.9999981 magnetization
 augmentation part       14.7018495 magnetization

 Free energy of the ion-electron system (eV)
  alpha Z        PSCENC =        68.58501286
  Ewald energy   TEWEN  =     13676.75659593
  -Hartree energ DENC   =    -19510.18924620
  -exchange      EXHF   =         0.00000000
  -V(xc)+E(xc)   XCENC  =       138.02943081
  PAW double counting   =      6438.12115375    -6217.89420531
  entropy T*S    EENTRO =         0.00604670
  eigenvalues    EBANDS =     -1206.52311117
  atomic energy  EATOM  =      6566.49377757
  Solvation  Ediel_sol  =         0.00000000
  free energy    TOTEN  =       -46.61454507 eV

  energy without entropy =      -46.62059177  energy(sigma->0) =      -46.61656064

 average (electrostatic) potential at core
  the test charge radii are     1.0397  1.0406
  (the norm of the test charge is              1.0000)
       1 -78.9286       2 -78.7318       3 -78.7082       4 -79.2526       5 -78.3255
       6 -77.8547       7 -77.7837       8 -77.8283

 E-fermi :   1.8876     XC(G=0):  -5.9103     alpha+bet : -7.3618

 val. band max:        1.8602744246   @ k =   0.0000   0.3333   0.0000
 cond. band min:       1.8913034413   @ k =   0.3333   0.1667   0.0000
 fundamental gap:      0.0310290166
 Fermi energy:         1.8876322507

 k-point     1 :       0.0000    0.0000    0.0000
  band No.  band energies     occupation
      1     -55.2354      2.00000
      2     -54.8977      2.00000
      3     -54.7208      2.00000
      4     -54.6833      2.00000
      5     -31.6246      2.00000
      6     -31.5368      2.00000
      7     -31.2536      2.00000
      8     -31.2372      2.00000
      9     -31.1127      2.00000
     10     -31.1064      2.00000
     11     -31.0822      2.00000
     12     -30.9941      2.00000
     13     -30.7972      2.00000
     14     -30.7783      2.00000
     15     -30.6799      2.00000
     16     -30.6539      2.00000
     17      -6.9245      2.00000
     18      -6.1633      2.00000
     19      -4.9816      2.00000
     20      -3.5034      2.00000
     21      -1.7959      2.00000
     22      -0.1901      2.00000
     23       0.1939      2.00000
     24       0.2864      2.00000
     25       0.6157      2.00000
     26       0.7037      2.00000
     27       0.8550      2.00000
     28       1.0510      2.00000
     29       1.1456      2.00000
     30       1.2297      2.00000
     31       1.5224      2.00000
     32       1.8923      0.92153
     33       2.1474     -0.00148
     34       3.5366     -0.00000
     35       3.5884     -0.00000
     36       3.6312     -0.00000
     37       3.8880      0.00000
     38       3.9798      0.00000
     39       4.0663      0.00000
     40       4.2016      0.00000
     41       4.3407      0.00000
     42       4.4099      0.00000
     43       4.5979      0.00000
     44       4.9437      0.00000
     45       5.1171      0.00000
     46       5.4413      0.00000
     47       5.6569      0.00000
     48       5.8067      0.00000
     49       6.3612      0.00000
     50       6.5415      0.00000
     51       6.9563      0.00000
     52       7.2842      0.00000
     53       7.6509      0.00000
     54       7.8918      0.00000
     55       8.0036      0.00000
     56       8.3578      0.00000
     57       8.3601      0.00000
     58       8.6090      0.00000
     59      10.5045      0.00000
     60      10.6664      0.00000
     61      10.9567      0.00000
     62      10.9719      0.00000
     63      11.3082      0.00000
     64      11.3496      0.00000

[...]

 k-point    20 :       0.4444    0.5000    0.0000
  band No.  band energies     occupation
      1     -55.1812      2.00000
      2     -54.8430      2.00000
      3     -54.6649      2.00000
      4     -54.6281      2.00000
      5     -31.5723      2.00000
      6     -31.5435      2.00000
      7     -31.4965      2.00000
      8     -31.2378      2.00000
      9     -31.2119      2.00000
     10     -31.1790      2.00000
     11     -31.1294      2.00000
     12     -31.0941      2.00000
     13     -31.0701      2.00000
     14     -31.0405      2.00000
     15     -30.9390      2.00000
     16     -30.7327      2.00000
     17      -3.0503      2.00000
     18      -2.4191      2.00000
     19      -1.4823      2.00000
     20      -0.7394      2.00000
     21      -0.5906      2.00000
     22      -0.4964      2.00000
     23      -0.4572      2.00000
     24      -0.2244      2.00000
     25       0.0767      2.00000
     26       0.1056      2.00000
     27       0.2249      2.00000
     28       1.0796      2.00000
     29       1.4632      2.00000
     30       2.0223     -0.06703
     31       2.6739     -0.00000
     32       3.1094     -0.00000
     33       3.2036     -0.00000
     34       3.2806     -0.00000
     35       3.3345     -0.00000
     36       3.4967     -0.00000
     37       3.6324     -0.00000
     38       3.8855     -0.00000
     39       3.9713      0.00000
     40       4.0518      0.00000
     41       4.0541      0.00000
     42       4.6620      0.00000
     43       4.6811      0.00000
     44       4.7992      0.00000
     45       4.9020      0.00000
     46       5.3603      0.00000
     47       5.5453      0.00000
     48       5.6320      0.00000
     49       5.7481      0.00000
     50       6.3670      0.00000
     51       7.0258      0.00000
     52       7.3530      0.00000
     53       7.4363      0.00000
     54       7.5519      0.00000
     55       7.6610      0.00000
     56       8.1425      0.00000
     57       8.2146      0.00000
     58       8.6911      0.00000
     59       8.7892      0.00000
     60       9.4596      0.00000
     61      10.2463      0.00000
     62      10.6392      0.00000
     63      10.7737      0.00000
     64      10.8508      0.00000

 soft charge-density along one line, spin component           1
         0         1         2         3         4         5         6         7         8         9
 total charge-density along one line

------------------------ aborting loop because EDIFF is reached ----------------------------------------

  FORCE on cell =-STRESS in cart. coord.  units (eV):
  Direction    XX          YY          ZZ          XY          YZ          ZX
  Alpha Z    68.58501    68.58501    68.58501
  Ewald   16862.59893 15978.93744-19164.78265    -0.00000     0.00000    -0.00000
  Hartree 18465.24380 17722.11725-16677.17275    -0.00000    -0.00000    -0.00000
  E(xc)    -286.60048  -287.55822  -287.23766    -0.00000    -0.00000    -0.00000
  Local  -36068.32605-34420.05308 35115.44459    -0.00000    -0.00000    -0.00000
  n-local   -73.49488   -40.66908   -62.90817    -4.12923    -0.00000    -0.00000
  augment   249.02086   236.06084   243.20367    -0.00000     0.00000     0.00000
  Kinetic   780.63608   738.87255   762.72708    -1.38371     0.00000    -0.00000
  Fock        0.00000     0.00000     0.00000     0.00000     0.00000     0.00000
  Total      -2.33674    -3.70728    -2.14088     0.00000     0.00000     0.00000
  in kB     -13.09033   -20.76808   -11.99316     0.00000     0.00000     0.00000

 VOLUME and BASIS-vectors are now :
  energy-cutoff  :      520.00
  volume of cell :      286.00
      direct lattice vectors                 reciprocal lattice vectors
     2.823800087  0.000000000  0.000000000     0.354132718  0.000000000  0.000000000
     0.000000000  4.070300102  0.000000000     0.000000000  0.245682130  0.000000000
     0.000000000  0.000000000 24.883399963     0.000000000  0.000000000  0.040187434

  length of vectors
     2.823800087  4.070300102 24.883399963     0.354132718  0.245682130  0.040187434

 FORCES acting on ions
    electron-ion (+dipol)            ewald-force                    non-local-force                 convergence-correction
   -.118E-13 0.524E-13 0.220E+04   0.874E-14 0.603E-14 -.220E+04   0.000E+00 0.000E+00 -.110E-01   0.239E-13 -.853E-13 0.156E-04
   0.183E-13 0.531E-12 0.620E+03   0.569E-14 0.478E-14 -.619E+03   0.000E+00 0.000E+00 -.257E+00   0.430E-13 -.233E-13 -.123E-03
   0.654E-14 -.112E-12 -.928E+03   0.265E-13 0.659E-14 0.928E+03   0.000E+00 0.000E+00 -.855E-01   0.112E-14 0.368E-14 0.232E-02
   0.707E-14 -.154E-12 -.246E+04   0.100E-13 0.546E-14 0.245E+04   0.000E+00 0.000E+00 0.477E+01   -.942E-14 0.726E-13 0.786E-03
   0.380E-15 -.762E-13 0.679E+03   0.450E-14 -.354E-14 -.675E+03   0.000E+00 0.000E+00 -.426E+01   -.966E-15 0.615E-14 0.432E-04
   -.438E-14 0.329E-13 0.347E+03   -.189E-14 -.435E-15 -.347E+03   0.000E+00 0.000E+00 -.127E+00   -.557E-15 0.617E-14 -.211E-03
   -.498E-14 -.337E-13 -.387E+02   -.775E-14 -.529E-14 0.387E+02   0.000E+00 0.000E+00 0.988E-02   -.919E-15 -.448E-15 0.281E-03
   -.875E-14 -.470E-13 -.427E+03   -.596E-14 -.720E-14 0.427E+03   0.000E+00 0.000E+00 0.228E+00   -.815E-15 -.799E-14 0.520E-03
   0.239E-14 0.194E-12 -.275E+00   0.398E-13 0.640E-14 0.000E+00   0.000E+00 0.000E+00 0.272E+00   0.553E-13 -.285E-13 0.363E-02

 POSITION                                       TOTAL-FORCE (eV/Angst)
      0.00000      0.00000      8.41183         0.000000      0.000000     -0.311412
      0.00000      0.00000     11.23585         0.000000      0.000000      0.183841
      0.00000      0.00000     14.05962         0.000000      0.000000      0.215235
      0.00000      0.00000     16.88339         0.000000      0.000000     -0.674792
      1.41190      2.03515      6.99995         0.000000      0.000000      0.375752
      1.41190      2.03515      9.82372         0.000000      0.000000     -0.171809
      1.41190      2.03515     12.64773         0.000000      0.000000      0.016977
      1.41190      2.03515     15.47150         0.000000      0.000000      0.366208
    total drift:                                0.000000      0.000000     -0.000134

  FREE ENERGIE OF THE ION-ELECTRON SYSTEM (eV)
  free  energy   TOTEN  =       -46.61454507 eV

  energy  without entropy=      -46.62059177  energy(sigma->0) =      -46.61656064

 writing wavefunctions