 vasp.6.5.0 16Dec24 (build Apr 17 2025 17:55:45) complex

 executed on             LinuxIFC date 2025.06.04  14:39:28

 INCAR:
   ISTART = 1
   ICHARG = 11
   PREC = N
   LREAL = .FALSE.
   ENCUT = 520
   ALGO = N
   NELM = 500
   EDIFF = 1E-06
   IBRION = -1
   ISIF = 3
   NSW = 0
   EDIFFG = -0.01
   LAECHG = .T.
   SYMPREC = 1E-6
   NEDOS = 1000
   LORBIT = 10
   ISMEAR = 1
   SIGMA = 0.1

 POTCAR:    PAW_PBE Ti_sv 26Sep2005
 POTCAR:    PAW_PBE Al 04Jan2001
 POTCAR:    PAW_PBE Ga_d 06Jul2010
|           W    W    AA    RRRRR   N    N  II  N    N   GGGG   !!!           |
|           W    W   A  A   R    R  NN   N  II  NN   N  G    G  !!!           |
|           W    W  A    A  R    R  N N  N  II  N N  N  G       !!!           |
|           W WW W  AAAAAA  RRRRR   N  N N  II  N  N N  G  GGG   !            |
|           WW  WW  A    A  R   R   N   NN  II  N   NN  G    G                |
|           W    W  A    A  R    R  N    N  II  N    N   GGGG   !!!           |
|     For optimal performance we recommend to set                             |
|       NCORE = 2 up to number-of-cores-per-socket                            |
|     This setting can greatly improve the performance of VASP for DFT.       |
|     The default, NCORE=1 might be grossly inefficient on modern             |
|     multi-core architectures or massively parallel machines. Do your        |
|     Unfortunately you need to use the default for GW and RPA                |
|     calculations (for HF NCORE is supported but not extensively tested      |
|     yet).                                                                   |

   TITEL  = PAW_PBE Ti_sv 26Sep2005
   POMASS =   47.880; ZVAL   =   12.000    mass and valenz
   ENMAX  =  274.610; ENMIN  =  205.957 eV

   TITEL  = PAW_PBE Al 04Jan2001
   POMASS =   26.981; ZVAL   =    3.000    mass and valenz
   ENMAX  =  240.300; ENMIN  =  180.225 eV

   TITEL  = PAW_PBE Ga_d 06Jul2010
   POMASS =   69.723; ZVAL   =   13.000    mass and valenz
   ENMAX  =  282.691; ENMIN  =  212.018 eV

  PAW_PBE Ti_sv 26Sep2005               :
  PAW_PBE Al 04Jan2001                  :
  PAW_PBE Ga_d 06Jul2010                :

 POSCAR: Ti1 Al1
  positions in direct lattice
  velocities in cartesian coordinates

 exchange-correlation table for PE
   RHO(1)=    0.500       N(1)  =     2000
   RHO(2)=  100.500       N(2)  =     4000

 ion  position               nearest neighbor table
   1  0.000  0.000  0.019-   9 2.78  11 2.78  13 2.78  15 2.78  10 2.85  14 2.85  12 2.85  16 2.85

   2  0.000  0.000  0.481-   9 2.78  11 2.78  13 2.78  15 2.78  10 2.85  14 2.85  12 2.85  16 2.85

[...]

   6  0.500  0.000  0.504-  10 2.92  12 2.92  14 2.92  16 2.92  13 2.96  11 2.96  15 2.96   9 2.96

   7  0.500  0.500  0.046-  17 2.46  11 2.72  13 2.72  15 2.72   9 2.72
   8  0.500  0.500  0.454-  17 2.46  11 2.72  13 2.72  15 2.72   9 2.72
   9  0.243  0.243  0.250-   7 2.72   8 2.72   1 2.78   2 2.78  11 2.84  13 2.84   3 2.96   4 2.96
                             5 2.96   6 2.96  13 3.01  11 3.01
  10  0.214  0.214  0.750-  17 2.37  14 2.51  12 2.51   2 2.85   1 2.85   6 2.92   3 2.92   4 2.92
                             5 2.92  12 3.35  14 3.35
  11  0.243  0.757  0.250-   7 2.72   8 2.72   1 2.78   2 2.78   9 2.84  15 2.84   3 2.96   4 2.96
                             5 2.96   6 2.96  15 3.01   9 3.01
  12  0.214  0.786  0.750-  17 2.37  16 2.51  10 2.51   2 2.85   1 2.85   6 2.92   3 2.92   4 2.92
                             5 2.92  16 3.35  10 3.35
  13  0.757  0.243  0.250-   7 2.72   8 2.72   1 2.78   2 2.78   9 2.84  15 2.84   3 2.96   4 2.96
                             5 2.96   6 2.96  15 3.01   9 3.01
  14  0.786  0.214  0.750-  17 2.37  16 2.51  10 2.51   2 2.85   1 2.85   6 2.92   3 2.92   4 2.92
                             5 2.92  16 3.35  10 3.35
  15  0.757  0.757  0.250-   7 2.72   8 2.72   1 2.78   2 2.78  11 2.84  13 2.84   3 2.96   4 2.96
                             5 2.96   6 2.96  13 3.01  11 3.01
  16  0.786  0.786  0.750-  17 2.37  14 2.51  12 2.51   2 2.85   1 2.85   6 2.92   3 2.92   4 2.92
                             5 2.92  14 3.35  12 3.35
  17  0.500  0.500  0.750-  10 2.37  12 2.37  14 2.37  16 2.37   7 2.46   8 2.46

  LATTYP: Found a simple tetragonal cell.
 ALAT       =     5.8584555020
 C/A-ratio  =     1.4168024267

  Lattice vectors:

 A1 = (   5.8584555020,   0.0000000000,   0.0000000000)
 A2 = (   0.0000000000,   5.8584555020,   0.0000000000)
 A3 = (   0.0000000000,   0.0000000000,   8.3002739718)

Analysis of symmetry for initial positions (statically):
 Subroutine PRICEL returns:
 Original cell was already a primitive cell.

 Routine SETGRP: Setting up the symmetry group for a
 simple tetragonal supercell.

 Subroutine GETGRP returns: Found 16 space group operations
 (whereof  8 operations were pure point group operations)
 out of a pool of 16 trial point group operations.

The static configuration has the point symmetry C_4v.
 The point group associated with its full space group is D_4h.

Analysis of symmetry for dynamics (positions and initial velocities):
 Subroutine PRICEL returns:
 Original cell was already a primitive cell.

 Routine SETGRP: Setting up the symmetry group for a
 simple tetragonal supercell.

 Subroutine GETGRP returns: Found 16 space group operations
 (whereof  8 operations were pure point group operations)
 out of a pool of 16 trial point group operations.

The dynamic configuration has the point symmetry C_4v.
 The point group associated with its full space group is D_4h.

 Subroutine INISYM returns: Found 16 space group operations
 (whereof  8 operations are pure point group operations),
 and found     1 'primitive' translations

                                     Primitive cell

  volume of cell :     284.8779

  direct lattice vectors                    reciprocal lattice vectors
     5.858455502  0.000000000  0.000000000     0.170693453  0.000000000  0.000000000
     0.000000000  5.858455502  0.000000000     0.000000000  0.170693453  0.000000000
     0.000000000  0.000000000  8.300273972     0.000000000  0.000000000  0.120477951

  length of vectors
     5.858455502  5.858455502  8.300273972     0.170693453  0.170693453  0.120477951

  position of ions in fractional coordinates (direct lattice)
     0.000000000  0.000000000  0.018673676
     0.000000000  0.000000000  0.481326324
     0.000000000  0.500000000  0.995507135
     0.000000000  0.500000000  0.504492865
     0.500000000  0.000000000  0.995507135
     0.500000000  0.000000000  0.504492865
     0.500000000  0.500000000  0.046382817
     0.500000000  0.500000000  0.453617183
     0.242685310  0.242685310  0.250000000
     0.213916829  0.213916829  0.750000000
     0.242685310  0.757314690  0.250000000
     0.213916829  0.786083171  0.750000000
     0.757314690  0.242685310  0.250000000
     0.786083171  0.213916829  0.750000000
     0.757314690  0.757314690  0.250000000
     0.786083171  0.786083171  0.750000000
     0.500000000  0.500000000  0.750000000

  ion indices of the primitive-cell ions
   primitive index   ion index
                 1           1
                 2           2
                 3           3
                 4           4
                 5           5
                 6           6
                 7           7
                 8           8
                 9           9
                10          10
                11          11
                12          12
                13          13
                14          14
                15          15
                16          16
                17          17

Automatic generation of k-mesh.
 Grid dimensions derived from KSPACING:
 generate k-points for:    3    3    2

 Generating k-lattice:

  Cartesian coordinates                     Fractional coordinates (reciprocal lattice)
     0.056897818  0.000000000  0.000000000     0.333333333  0.000000000  0.000000000
     0.000000000  0.056897818  0.000000000     0.000000000  0.333333333  0.000000000
     0.000000000  0.000000000  0.060238975     0.000000000  0.000000000  0.500000000

  Length of vectors
     0.056897818  0.056897818  0.060238975

  Shift w.r.t. Gamma in fractional coordinates (k-lattice)
     0.000000000  0.000000000  0.000000000

 Subroutine IBZKPT returns following result:

 Found      6 irreducible k-points:

 Following reciprocal coordinates:
            Coordinates               Weight
  0.000000  0.000000  0.000000      1.000000
  0.333333  0.000000  0.000000      4.000000
  0.333333  0.333333  0.000000      4.000000
  0.000000  0.000000  0.500000      1.000000
  0.333333  0.000000  0.500000      4.000000
  0.333333  0.333333  0.500000      4.000000

 Following cartesian coordinates:
            Coordinates               Weight
  0.000000  0.000000  0.000000      1.000000
  0.056898  0.000000  0.000000      4.000000
  0.056898  0.056898  0.000000      4.000000
  0.000000  0.000000  0.060239      1.000000
  0.056898  0.000000  0.060239      4.000000
  0.056898  0.056898  0.060239      4.000000

 SYSTEM =  unknown system
 POSCAR =  Ti1 Al1

 Startparameter for this run:
   NWRITE =      2    write-flag & timer
   PREC   = n         normal or accurate (medium, high low for compatibility)
   ISTART =      0    job   : 0-new  1-cont  2-samecut
   ICHARG =     11    charge: 1-file 2-atom 10-const
   ISPIN  =      1    spin polarized calculation?
   LNONCOLLINEAR =      F non collinear calculations
   LSORBIT =      F    spin-orbit coupling
   INIWAV =      1    electr: 0-lowe 1-rand  2-diag
   LASPH  =      F    aspherical Exc in radial PAW
 Electronic Relaxation 1
   ENCUT  =  520.0 eV  38.22 Ry    6.18 a.u.  10.89 10.89 15.43*2*pi/ulx,y,z
   ENINI  =  520.0     initial cutoff
   ENAUG  =  490.7 eV  augmentation charge cutoff
   NELM   =    500;   NELMIN=  2; NELMDL=  0     # of ELM steps
   EDIFF  = 0.1E-05   stopping-criterion for ELM
   LREAL  =      F    real-space projection
   NLSPLINE    = F    spline interpolate recip. space projectors
   LCOMPAT=      F    compatible to vasp.4.4
   GGA_COMPAT  = T    GGA compatible to vasp.4.4-vasp.4.6
   LMAXPAW     = -100 max onsite density
   LMAXMIX     =    2 max onsite mixed and CHGCAR
   VOSKOWN=      0    Vosko Wilk Nusair interpolation
   ROPT   =    0.00000   0.00000   0.00000
 Ionic relaxation
   EDIFFG = -.1E-01   stopping-criterion for IOM
   NSW    =      0    number of steps for IOM
   NBLOCK =      1;   KBLOCK =      1    inner block; outer block
   IBRION =     -1    ionic relax: 0-MD 1-quasi-New 2-CG
   NFREE  =      0    steps in history (QN), initial steepest desc. (CG)
   ISIF   =      3    stress and relaxation
   IWAVPR =     10    prediction:  0-non 1-charg 2-wave 3-comb
   ISYM   =      2    0-nonsym 1-usesym 2-fastsym
   LCORR  =      T    Harris-Foulkes like correction to forces

   POTIM  = 0.5000    time-step for ionic-motion
   TEIN   =    0.0    initial temperature
   TEBEG  =    0.0;   TEEND  =   0.0 temperature during run
   SMASS  =  -3.00    Nose mass-parameter (am)
   estimated Nose-frequenzy (Omega)   =  0.10E-29 period in steps = 0.13E+47 mass=  -0.784E-27a.u.
   SCALEE = 1.0000    scale energy and forces
[...]

 maximum and minimum number of plane-waves per node :      7699     7650

 maximum number of plane-waves:      7699
 maximum index in each direction:
   IXMAX=   10   IYMAX=   10   IZMAX=   15
   IXMIN=  -11   IYMIN=  -11   IZMIN=  -15

 serial   3D FFT for wavefunctions
 parallel 3D FFT for charge:
    minimum data exchange during FFTs selected (reduces bandwidth)

 initial charge density was supplied:
 number of electron     132.9999798 magnetization
 keeping initial charge density in first step

 Maximum index for augmentation-charges          772 (set IRDMAX)

 First call to EWALD:  gamma=   0.269
 Maximum number of real-space cells   3x   3x   2
 Maximum number of reciprocal cells   3x   3x   3

--------------------------------------- Ionic step        1  -------------------------------------------

--------------------------------------- Iteration      1(   1)  ---------------------------------------

 eigenvalue-minimisations  :  1536
 total energy-change (2. order) : 0.1009091E+04  (-0.6570139E+04)
 number of electron     132.9999798 magnetization
 augmentation part      132.9999798 magnetization

 Free energy of the ion-electron system (eV)
  alpha Z        PSCENC =       353.75656847
  Ewald energy   TEWEN  =     -9823.54474122
  -Hartree energ DENC   =     -4574.44964710
  -exchange      EXHF   =         0.00000000
  -V(xc)+E(xc)   XCENC  =       321.98796991
  PAW double counting   =     14842.87852822   -14742.74479515
  entropy T*S    EENTRO =        -0.01278567
  eigenvalues    EBANDS =      -650.59438287
  atomic energy  EATOM  =     15281.81476201
  Solvation  Ediel_sol  =         0.00000000
  free energy    TOTEN  =      1009.09147661 eV

  energy without entropy =     1009.10426228  energy(sigma->0) =     1009.09573850

[...]

 eigenvalue-minimisations  :  1600
 total energy-change (2. order) :-0.1019007E+04  (-0.9794702E+03)
 number of electron     132.9999798 magnetization
 augmentation part      132.9999798 magnetization

[...]

--------------------------------------- Iteration      1(   8)  ---------------------------------------

 eigenvalue-minimisations  :  1664
 total energy-change (2. order) :-0.1718508E-06  (-0.1721813E-06)
 number of electron     132.9999798 magnetization
 augmentation part      132.9999798 magnetization

 Free energy of the ion-electron system (eV)
  alpha Z        PSCENC =       353.75656847
  Ewald energy   TEWEN  =     -9823.54474122
  -Hartree energ DENC   =     -4574.44964710
  -exchange      EXHF   =         0.00000000
  -V(xc)+E(xc)   XCENC  =       321.98796991
  PAW double counting   =     14842.87852822   -14742.74479515
  entropy T*S    EENTRO =         0.01133388
  eigenvalues    EBANDS =     -1758.34598176
  atomic energy  EATOM  =     15281.81476201
  Solvation  Ediel_sol  =         0.00000000
  free energy    TOTEN  =       -98.63600274 eV

  energy without entropy =      -98.64733661  energy(sigma->0) =      -98.63978069

 average (electrostatic) potential at core
  the test charge radii are     1.0397  1.0406  1.0314
  (the norm of the test charge is              1.0000)
       1 -72.6561       2 -72.6561       3 -73.0080       4 -73.0080       5 -73.0080
       6 -73.0080       7 -72.6848       8 -72.6848       9 -71.7254      10 -72.1302
      11 -71.7254      12 -72.1302      13 -71.7254      14 -72.1302      15 -71.7254
      16 -72.1302      17 -62.7396

 E-fermi :   8.0383     XC(G=0): -10.9195     alpha+bet :-15.5516

 val. band max:        8.0038802888   @ k =   0.3333   0.0000   0.5000
 cond. band min:       8.0515324774   @ k =   0.3333   0.3333   0.5000
 fundamental gap:      0.0476521886
 Fermi energy:         8.0382739149

 k-point     1 :       0.0000    0.0000    0.0000
  band No.  band energies     occupation
      1     -48.9413      2.00000
      2     -48.9409      2.00000
      3     -48.9370      2.00000
      4     -48.9366      2.00000
      5     -48.6467      2.00000
      6     -48.6434      2.00000
      7     -48.6016      2.00000
      8     -48.6009      2.00000
      9     -25.3381      2.00000
     10     -25.3323      2.00000
     11     -25.3275      2.00000
     12     -25.3232      2.00000
     13     -25.2267      2.00000
     14     -25.2267      2.00000
     15     -25.2244      2.00000
     16     -25.2244      2.00000
     17     -25.1708      2.00000
     18     -25.1708      2.00000
     19     -25.1695      2.00000
     20     -25.1695      2.00000
     21     -25.0422      2.00000
     22     -24.9930      2.00000
     23     -24.9894      2.00000
     24     -24.9743      2.00000
     25     -24.8314      2.00000
     26     -24.8314      2.00000
     27     -24.8275      2.00000
     28     -24.8275      2.00000
     29     -24.7556      2.00000
     30     -24.7556      2.00000
     31     -24.7545      2.00000
     32     -24.7545      2.00000
     33      -7.4237      2.00000
     34      -7.3235      2.00000
     35      -7.2952      2.00000
     36      -7.2441      2.00000
     37      -7.2441      2.00000
     38      -1.8271      2.00000
     39       0.1089      2.00000
     40       1.4846      2.00000
     41       2.3785      2.00000
     42       2.3785      2.00000
     43       2.6587      2.00000
     44       3.1984      2.00000
     45       3.1984      2.00000
     46       3.5327      2.00000
     47       4.4678      2.00000
     48       4.8673      2.00000
     49       4.9799      2.00000
     50       5.2656      2.00000
     51       5.2656      2.00000
     52       5.7328      2.00000
     53       6.0722      2.00000
     54       6.1898      2.00000
     55       6.3784      2.00000
     56       6.3784      2.00000
     57       6.6693      2.00000
     58       6.6806      2.00000
     59       6.6806      2.00000
     60       6.7344      2.00000
[...]
    114      14.9571      0.00000
    115      15.5667      0.00000
    116      16.4224      0.00000
    117      16.4311      0.00000
    118      16.4415      0.00000
    119      16.9217      0.00000
    120      16.9217      0.00000
    121      17.4818      0.00000
    122      17.8282      0.00000
    123      17.9857      0.00000
    124      17.9857      0.00000
    125      18.4765      0.00000
    126      18.5707      0.00000
    127      18.5709      0.00000
    128      18.8649      0.00000

[...]

 k-point     6 :       0.3333    0.3333    0.5000
  band No.  band energies     occupation
      1     -48.9382      2.00000
      2     -48.9381      2.00000
      3     -48.9371      2.00000
      4     -48.9370      2.00000
      5     -48.6480      2.00000
      6     -48.6448      2.00000
      7     -48.6031      2.00000
      8     -48.6025      2.00000
      9     -25.3320      2.00000
     10     -25.3307      2.00000
     11     -25.3301      2.00000
     12     -25.3288      2.00000
     13     -25.1829      2.00000
     14     -25.1821      2.00000
     15     -25.1724      2.00000
     16     -25.1721      2.00000
     17     -25.1288      2.00000
     18     -25.1285      2.00000
     19     -25.1212      2.00000
     20     -25.1211      2.00000
     21     -25.0347      2.00000
     22     -24.9945      2.00000
     23     -24.9872      2.00000
     24     -24.9772      2.00000
     25     -24.8772      2.00000
     26     -24.8764      2.00000
     27     -24.8723      2.00000
     28     -24.8717      2.00000
     29     -24.8098      2.00000
     30     -24.8097      2.00000
     31     -24.8089      2.00000
     32     -24.8087      2.00000
     33      -7.4249      2.00000
     34      -7.3216      2.00000
     35      -7.2938      2.00000
     36      -7.2444      2.00000
     37      -7.2444      2.00000
     38      -1.0186      2.00000
     39       0.3251      2.00000
     40       0.6779      2.00000
     41       1.3555      2.00000
     42       1.9633      2.00000
     43       2.0118      2.00000
     44       2.2368      2.00000
     45       3.1725      2.00000
     46       4.8208      2.00000
     47       5.0435      2.00000
     48       5.2076      2.00000
     49       5.4655      2.00000
     50       5.7331      2.00000
     51       5.8600      2.00000
     52       6.0316      2.00000
     53       6.0868      2.00000
     54       6.1253      2.00000
     55       6.2196      2.00000
     56       6.3664      2.00000
     57       6.4032      2.00000
     58       6.4733      2.00000
     59       6.6533      2.00000
     60       6.9509      2.00000
[...]
    114      15.3342      0.00000
    115      15.4420      0.00000
    116      15.5631      0.00000
    117      15.8638      0.00000
    118      15.9792      0.00000
    119      16.1511      0.00000
    120      16.2083      0.00000
    121      16.2290      0.00000
    122      16.4059      0.00000
    123      16.4559      0.00000
    124      16.6826      0.00000
    125      17.0887      0.00000
    126      17.8581      0.00000
    127      18.2129      0.00000
    128      18.2300      0.00000

 soft charge-density along one line, spin component           1
         0         1         2         3         4         5         6         7         8         9
 total charge-density along one line

------------------------ aborting loop because EDIFF is reached ----------------------------------------

 total charge

# of ion       s       p       d       tot
    1        2.193   6.120   1.936  10.250
    2        2.193   6.120   1.936  10.250
    3        2.189   6.084   1.894  10.168
    4        2.189   6.084   1.894  10.168
    5        2.189   6.084   1.894  10.168
    6        2.189   6.084   1.894  10.168
    7        2.204   6.115   1.985  10.305
    8        2.204   6.115   1.985  10.305
    9        0.414   0.403   0.000   0.817
   10        0.413   0.420   0.000   0.834
   11        0.414   0.403   0.000   0.817
   12        0.413   0.420   0.000   0.834
   13        0.414   0.403   0.000   0.817
   14        0.413   0.420   0.000   0.834
   15        0.414   0.403   0.000   0.817
   16        0.413   0.420   0.000   0.834
   17        0.987   1.105   9.977  12.069
tot         21.849  53.206  25.396 100.451

  FORCE on cell =-STRESS in cart. coord.  units (eV):
  Direction    XX          YY          ZZ          XY          YZ          ZX
  Alpha Z   353.75657   353.75657   353.75657
  Ewald   -3102.58969 -3102.58969 -3618.38885     0.00000    -0.00000    -0.00000
  Hartree  1711.71062  1711.71062  1154.08425    -0.00000    -0.00000    -0.00000
  E(xc)    -654.52063  -654.52063  -655.08397     0.00000    -0.00000    -0.00000
  Local    -419.37915  -419.37915   682.03329     0.00000     0.00000     0.00000
  n-local   -94.73325  -112.22230   -72.05808    -3.37361    -0.00001     0.00000
  augment   617.31858   617.31858   601.26967    -0.00000    -0.00000    -0.00000
  Kinetic  1586.17454  1607.40699  1557.01513     3.08287     0.00001     0.00000
  Fock        0.00000     0.00000     0.00000     0.00000     0.00000     0.00000
  Total      -0.39072    -0.39072     2.62802     0.00000     0.00000    -0.00000
  in kB      -2.19744    -2.19744    14.78023     0.00000     0.00000    -0.00000

 VOLUME and BASIS-vectors are now :
  energy-cutoff  :      520.00
  volume of cell :      284.88
      direct lattice vectors                 reciprocal lattice vectors
     5.858455502  0.000000000  0.000000000     0.170693453  0.000000000  0.000000000
     0.000000000  5.858455502  0.000000000     0.000000000  0.170693453  0.000000000
     0.000000000  0.000000000  8.300273972     0.000000000  0.000000000  0.120477951

  length of vectors
     5.858455502  5.858455502  8.300273972     0.170693453  0.170693453  0.120477951

 FORCES acting on ions
    electron-ion (+dipol)            ewald-force                    non-local-force                 convergence-correction
   0.948E-14 -.139E-12 -.462E+02   0.293E-13 -.697E-14 0.445E+02   0.529E-22 0.529E-22 0.900E+00   -.107E-11 -.960E-12 0.648E+00
   -.425E-14 0.155E-12 0.462E+02   0.115E-13 -.533E-14 -.445E+02   -.529E-22 -.529E-22 -.900E+00   0.423E-12 -.712E-12 -.648E+00
   -.528E-14 0.101E-11 -.443E+02   0.672E-14 0.902E-14 0.454E+02   0.106E-21 0.265E-22 -.112E+01   -.777E-12 0.582E-11 -.278E-01
   -.451E-13 0.249E-12 0.443E+02   0.628E-14 0.127E-13 -.454E+02   -.106E-21 -.265E-22 0.112E+01   0.103E-12 0.498E-11 0.278E-01
   0.683E-12 0.356E-13 -.443E+02   -.160E-13 -.805E-14 0.454E+02   0.000E+00 0.000E+00 -.112E+01   0.604E-11 -.252E-11 -.278E-01
   0.673E-12 -.123E-12 0.443E+02   -.230E-14 0.172E-15 -.454E+02   0.000E+00 0.265E-22 0.112E+01   0.180E-11 0.171E-11 0.278E-01
   0.750E-12 0.214E-11 -.219E+03   -.182E-13 0.668E-14 0.220E+03   0.000E+00 -.827E-23 -.626E+00   0.126E-11 -.325E-12 0.287E+00
   0.776E-12 0.300E-11 0.219E+03   0.525E-15 -.537E-14 -.220E+03   0.000E+00 0.000E+00 0.626E+00   0.175E-11 0.937E-12 -.287E+00
   0.956E+01 0.956E+01 -.298E-07   -.937E+01 -.937E+01 -.255E-14   -.608E-01 -.608E-01 -.132E-21   -.119E+00 -.119E+00 -.466E-13
   0.308E+02 0.308E+02 0.158E-06   -.327E+02 -.327E+02 -.790E-14   0.184E+01 0.184E+01 0.529E-22   -.146E-01 -.146E-01 -.351E-13
   0.956E+01 -.956E+01 0.211E-13   -.937E+01 0.937E+01 0.263E-13   -.608E-01 0.608E-01 0.000E+00   -.119E+00 0.119E+00 -.171E-12
   0.308E+02 -.308E+02 0.599E-13   -.327E+02 0.327E+02 0.103E-13   0.184E+01 -.184E+01 -.265E-22   -.146E-01 0.146E-01 0.136E-12
   -.956E+01 0.956E+01 -.146E-11   0.937E+01 -.937E+01 -.269E-14   0.608E-01 -.608E-01 0.993E-23   0.119E+00 -.119E+00 -.224E-12
   -.308E+02 0.308E+02 0.236E-13   0.327E+02 -.327E+02 0.309E-14   -.184E+01 0.184E+01 -.529E-22   0.146E-01 -.146E-01 0.927E-13
   -.956E+01 -.956E+01 0.298E-07   0.937E+01 0.937E+01 -.350E-14   0.608E-01 0.608E-01 0.397E-22   0.119E+00 0.119E+00 -.330E-12
   -.308E+02 -.308E+02 -.158E-06   0.327E+02 0.327E+02 0.212E-13   -.184E+01 -.184E+01 0.397E-22   0.146E-01 0.146E-01 0.260E-12
   0.116E-11 0.375E-11 0.279E-11   0.388E-13 0.970E-14 0.775E-14   0.000E+00 0.000E+00 -.265E-22   0.429E-12 0.127E-11 0.720E-12
   0.452E-11 0.109E-10 0.157E-10   -.251E-13 0.259E-14 -.487E-14   -.222E-15 -.444E-15 -.444E-15   0.978E-11 0.997E-11 -.343E-11

 POSITION                                       TOTAL-FORCE (eV/Angst)
      0.00000      0.00000      0.15500        -0.000000      0.000000     -0.072066
      0.00000      0.00000      3.99514        -0.000000      0.000000      0.072066
      0.00000      2.92923      8.26298        -0.000000      0.000000      0.005980
      0.00000      2.92923      4.18743        -0.000000      0.000000     -0.005980
      2.92923      0.00000      8.26298        -0.000000      0.000000      0.005980
      2.92923      0.00000      4.18743        -0.000000      0.000000     -0.005980
      2.92923      2.92923      0.38499        -0.000000      0.000000     -0.034138
      2.92923      2.92923      3.76515        -0.000000      0.000000      0.034138
      1.42176      1.42176      2.07507         0.010444      0.010444      0.000000
      1.25322      1.25322      6.22521        -0.074747     -0.074747      0.000000
      1.42176      4.43669      2.07507         0.010444     -0.010444      0.000000
      1.25322      4.60523      6.22521        -0.074747      0.074747      0.000000
      4.43669      1.42176      2.07507        -0.010444      0.010444      0.000000
      4.60523      1.25322      6.22521         0.074747     -0.074747      0.000000
      4.43669      4.43669      2.07507        -0.010444     -0.010444      0.000000
      4.60523      4.60523      6.22521         0.074747      0.074747      0.000000
      2.92923      2.92923      6.22521        -0.000000      0.000000      0.000000
    total drift:                                0.000000      0.000000      0.000000

  FREE ENERGIE OF THE ION-ELECTRON SYSTEM (eV)
  free  energy   TOTEN  =       -98.63600274 eV

  energy  without entropy=      -98.64733661  energy(sigma->0) =      -98.63978069

 writing wavefunctions

 total charge

# of ion       s       p       d       tot
    1        2.193   6.120   1.936  10.250
    2        2.193   6.120   1.936  10.250
    3        2.189   6.084   1.894  10.168
    4        2.189   6.084   1.894  10.168
    5        2.189   6.084   1.894  10.168
    6        2.189   6.084   1.894  10.168
    7        2.204   6.115   1.985  10.305
    8        2.204   6.115   1.985  10.305
    9        0.414   0.403   0.000   0.817
   10        0.413   0.420   0.000   0.834
   11        0.414   0.403   0.000   0.817
   12        0.413   0.420   0.000   0.834
   13        0.414   0.403   0.000   0.817
   14        0.413   0.420   0.000   0.834
   15        0.414   0.403   0.000   0.817
   16        0.413   0.420   0.000   0.834
   17        0.987   1.105   9.977  12.069
tot         21.849  53.206  25.396 100.451