 vasp.6.5.0 16Dec24 (build Apr 17 2025 17:55:45) complex

 executed on             LinuxIFC date 2025.06.04  10:32:07

 INCAR:
   ISTART = 0
   ICHARG = 2
   PREC = N
   LREAL = .FALSE.
   ENCUT = 520
   ALGO = N
   NELM = 500
   EDIFF = 1E-05
   IBRION = -1
   ISIF = 3
   NSW = 0
   EDIFFG = -0.01
   ISMEAR = 1
   SIGMA = 0.1

 POTCAR:    PAW_PBE Ti_sv 26Sep2005
 POTCAR:    PAW_PBE Al 04Jan2001
|           W    W    AA    RRRRR   N    N  II  N    N   GGGG   !!!           |
|           W    W   A  A   R    R  NN   N  II  NN   N  G    G  !!!           |
|           W    W  A    A  R    R  N N  N  II  N N  N  G       !!!           |
|           W WW W  AAAAAA  RRRRR   N  N N  II  N  N N  G  GGG   !            |
|           WW  WW  A    A  R   R   N   NN  II  N   NN  G    G                |
|           W    W  A    A  R    R  N    N  II  N    N   GGGG   !!!           |
|     For optimal performance we recommend to set                             |
|       NCORE = 2 up to number-of-cores-per-socket                            |
|     This setting can greatly improve the performance of VASP for DFT.       |
|     The default, NCORE=1 might be grossly inefficient on modern             |
|     multi-core architectures or massively parallel machines. Do your        |
|     Unfortunately you need to use the default for GW and RPA                |
|     calculations (for HF NCORE is supported but not extensively tested      |
|     yet).                                                                   |

   TITEL  = PAW_PBE Ti_sv 26Sep2005
   POMASS =   47.880; ZVAL   =   12.000    mass and valenz
   ENMAX  =  274.610; ENMIN  =  205.957 eV

   TITEL  = PAW_PBE Al 04Jan2001
   POMASS =   26.981; ZVAL   =    3.000    mass and valenz
   ENMAX  =  240.300; ENMIN  =  180.225 eV

  PAW_PBE Ti_sv 26Sep2005               :
  PAW_PBE Al 04Jan2001                  :

 POSCAR: Ti1 Al1
  positions in direct lattice
  velocities in cartesian coordinates

 exchange-correlation table for PE
   RHO(1)=    0.500       N(1)  =     2000
   RHO(2)=  100.500       N(2)  =     4000

 ion  position               nearest neighbor table
   1  0.000  0.000  0.000-   3 2.83   5 2.83   3 2.83   5 2.83  11 2.85  12 2.85  13 2.85  14 2.85
                            15 2.85  16 2.85   9 2.85  10 2.85
   2  0.000  0.000  0.500-   4 2.83   6 2.83   4 2.83   6 2.83  11 2.85  12 2.85  13 2.85  14 2.85
                            15 2.85  16 2.85   9 2.85  10 2.85
   3  0.000  0.500  0.000-   1 2.83   7 2.83   1 2.83   7 2.83  11 2.85  12 2.85  13 2.85  14 2.85
                            15 2.85  16 2.85   9 2.85  10 2.85
   4  0.000  0.500  0.500-   2 2.83   8 2.83   2 2.83   8 2.83  11 2.85  12 2.85  13 2.85  14 2.85
                            15 2.85  16 2.85   9 2.85  10 2.85
   5  0.500  0.000  0.000-   1 2.83   7 2.83   7 2.83   1 2.83  11 2.85  12 2.85  13 2.85  14 2.85
                            15 2.85  16 2.85   9 2.85  10 2.85
   6  0.500  0.000  0.500-   2 2.83   8 2.83   8 2.83   2 2.83  11 2.85  12 2.85  13 2.85  14 2.85
                            15 2.85  16 2.85   9 2.85  10 2.85
   7  0.500  0.500  0.000-   3 2.83   5 2.83   5 2.83   3 2.83  11 2.85  12 2.85  13 2.85  14 2.85
                            15 2.85  16 2.85   9 2.85  10 2.85
   8  0.500  0.500  0.500-   4 2.83   6 2.83   6 2.83   4 2.83  11 2.85  12 2.85  13 2.85  14 2.85
                            15 2.85  16 2.85   9 2.85  10 2.85
   9  0.250  0.250  0.250-  11 2.83  13 2.83  11 2.83  13 2.83   5 2.85   6 2.85   7 2.85   8 2.85
                             1 2.85   2 2.85   3 2.85   4 2.85
  10  0.250  0.250  0.750-  12 2.83  14 2.83  12 2.83  14 2.83   5 2.85   6 2.85   7 2.85   8 2.85
                             1 2.85   2 2.85   3 2.85   4 2.85
  11  0.250  0.750  0.250-   9 2.83  15 2.83   9 2.83  15 2.83   5 2.85   6 2.85   7 2.85   8 2.85
                             1 2.85   2 2.85   3 2.85   4 2.85
  12  0.250  0.750  0.750-  10 2.83  16 2.83  10 2.83  16 2.83   5 2.85   6 2.85   7 2.85   8 2.85
                             1 2.85   2 2.85   3 2.85   4 2.85
  13  0.750  0.250  0.250-   9 2.83  15 2.83  15 2.83   9 2.83   5 2.85   6 2.85   7 2.85   8 2.85
                             1 2.85   2 2.85   3 2.85   4 2.85
  14  0.750  0.250  0.750-  10 2.83  16 2.83  16 2.83  10 2.83   5 2.85   6 2.85   7 2.85   8 2.85
                             1 2.85   2 2.85   3 2.85   4 2.85
  15  0.750  0.750  0.250-  11 2.83  13 2.83  13 2.83  11 2.83   5 2.85   6 2.85   7 2.85   8 2.85
                             1 2.85   2 2.85   3 2.85   4 2.85
  16  0.750  0.750  0.750-  12 2.83  14 2.83  14 2.83  12 2.83   5 2.85   6 2.85   7 2.85   8 2.85
                             1 2.85   2 2.85   3 2.85   4 2.85

  LATTYP: Found a simple tetragonal cell.
 ALAT       =     5.6506817720
 C/A-ratio  =     1.4378139695

  Lattice vectors:

 A1 = (   5.6506817720,   0.0000000000,   0.0000000000)
 A2 = (   0.0000000000,   5.6506817720,   0.0000000000)
 A3 = (   0.0000000000,   0.0000000000,   8.1246291889)

Analysis of symmetry for initial positions (statically):
 Subroutine PRICEL returns following result:

[...]

   8 primitive cells build up your supercell.

 Routine SETGRP: Setting up the symmetry group for a
 simple tetragonal supercell.

 Subroutine GETGRP returns: Found 16 space group operations
 (whereof 16 operations were pure point group operations)
 out of a pool of 16 trial point group operations.

The static configuration has the point symmetry D_4h.

Analysis of symmetry for dynamics (positions and initial velocities):
 Subroutine PRICEL returns following result:

  LATTYP: Found a simple tetragonal cell.
 ALAT       =     2.8253408860
 C/A-ratio  =     1.4378139695

  Lattice vectors:

 A1 = (   2.8253408860,   0.0000000000,   0.0000000000)
 A2 = (   0.0000000000,   2.8253408860,   0.0000000000)
 A3 = (   0.0000000000,   0.0000000000,   4.0623145945)

   8 primitive cells build up your supercell.

 Routine SETGRP: Setting up the symmetry group for a
 simple tetragonal supercell.

 Subroutine GETGRP returns: Found 16 space group operations
 (whereof 16 operations were pure point group operations)
 out of a pool of 16 trial point group operations.

The dynamic configuration has the point symmetry D_4h.

 Subroutine INISYM returns: Found 16 space group operations
 (whereof 16 operations are pure point group operations),
 and found     8 'primitive' translations

                                     Primitive cell

  volume of cell :      32.4276

  direct lattice vectors                    reciprocal lattice vectors
     2.825340886  0.000000000  0.000000000     0.353939592  0.000000000  0.000000000
     0.000000000  2.825340886  0.000000000     0.000000000  0.353939592  0.000000000
     0.000000000  0.000000000  4.062314594     0.000000000  0.000000000  0.246165081

  length of vectors
     2.825340886  2.825340886  4.062314594     0.353939592  0.353939592  0.246165081

  position of ions in fractional coordinates (direct lattice)
     0.000000000  0.000000000  0.000000000
     0.500000000  0.500000000  0.500000000

  ion indices of the primitive-cell ions
   primitive index   ion index
                 1           1
                 2           9

 KPOINTS: K-Spacing Value to Generate K-Mesh: 0.02

Automatic generation of k-mesh.
 Grid dimensions read from file:
 generate k-points for:    9    9    6

 Generating k-lattice:

  Cartesian coordinates                     Fractional coordinates (reciprocal lattice)
     0.019663311  0.000000000  0.000000000     0.111111111  0.000000000  0.000000000
     0.000000000  0.019663311  0.000000000     0.000000000  0.111111111  0.000000000
     0.000000000  0.000000000  0.020513757     0.000000000  0.000000000  0.166666667

  Length of vectors
     0.019663311  0.019663311  0.020513757

  Shift w.r.t. Gamma in fractional coordinates (k-lattice)
     0.000000000  0.000000000  0.000000000

 Subroutine IBZKPT returns following result:

 Found     60 irreducible k-points:

 Following reciprocal coordinates:
            Coordinates               Weight
  0.000000  0.000000  0.000000      1.000000
  0.111111  0.000000  0.000000      4.000000
  0.222222  0.000000  0.000000      4.000000
  0.333333  0.000000  0.000000      4.000000
  0.444444  0.000000  0.000000      4.000000
  0.111111  0.111111  0.000000      4.000000
  0.222222  0.111111  0.000000      8.000000
  0.333333  0.111111  0.000000      8.000000
  0.444444  0.111111  0.000000      8.000000
  0.222222  0.222222  0.000000      4.000000
  0.333333  0.222222  0.000000      8.000000
  0.444444  0.222222  0.000000      8.000000
  0.333333  0.333333  0.000000      4.000000
  0.444444  0.333333  0.000000      8.000000
  0.444444  0.444444  0.000000      4.000000
  0.000000  0.000000  0.166667      2.000000
  0.111111  0.000000  0.166667      8.000000
  0.222222  0.000000  0.166667      8.000000
  0.333333  0.000000  0.166667      8.000000
  0.444444  0.000000  0.166667      8.000000
  0.111111  0.111111  0.166667      8.000000
  0.222222  0.111111  0.166667     16.000000
  0.333333  0.111111  0.166667     16.000000
  0.444444  0.111111  0.166667     16.000000
  0.222222  0.222222  0.166667      8.000000
  0.333333  0.222222  0.166667     16.000000
  0.444444  0.222222  0.166667     16.000000
  0.333333  0.333333  0.166667      8.000000
  0.444444  0.333333  0.166667     16.000000
  0.444444  0.444444  0.166667      8.000000
  0.000000  0.000000  0.333333      2.000000
  0.111111  0.000000  0.333333      8.000000
  0.222222  0.000000  0.333333      8.000000
  0.333333  0.000000  0.333333      8.000000
  0.444444  0.000000  0.333333      8.000000
  0.111111  0.111111  0.333333      8.000000
  0.222222  0.111111  0.333333     16.000000
  0.333333  0.111111  0.333333     16.000000
  0.444444  0.111111  0.333333     16.000000
  0.222222  0.222222  0.333333      8.000000
  0.333333  0.222222  0.333333     16.000000
  0.444444  0.222222  0.333333     16.000000
  0.333333  0.333333  0.333333      8.000000
  0.444444  0.333333  0.333333     16.000000
  0.444444  0.444444  0.333333      8.000000
  0.000000  0.000000  0.500000      1.000000
  0.111111  0.000000  0.500000      4.000000
  0.222222  0.000000  0.500000      4.000000
  0.333333  0.000000  0.500000      4.000000
  0.444444  0.000000  0.500000      4.000000
  0.111111  0.111111  0.500000      4.000000
  0.222222  0.111111  0.500000      8.000000
  0.333333  0.111111  0.500000      8.000000
  0.444444  0.111111  0.500000      8.000000
  0.222222  0.222222  0.500000      4.000000
  0.333333  0.222222  0.500000      8.000000
  0.444444  0.222222  0.500000      8.000000
  0.333333  0.333333  0.500000      4.000000
  0.444444  0.333333  0.500000      8.000000
  0.444444  0.444444  0.500000      4.000000

 Following cartesian coordinates:
            Coordinates               Weight
  0.000000  0.000000  0.000000      1.000000
  0.019663  0.000000  0.000000      4.000000
  0.039327  0.000000  0.000000      4.000000
  0.058990  0.000000  0.000000      4.000000
  0.078653  0.000000  0.000000      4.000000
  0.019663  0.019663  0.000000      4.000000
  0.039327  0.019663  0.000000      8.000000
[...]
 k-point    45 :   0.4444 0.4444 0.3333  plane waves:    6950
 k-point    46 :   0.0000 0.0000 0.5000  plane waves:    7014
 k-point    47 :   0.1111 0.0000 0.5000  plane waves:    7000
 k-point    48 :   0.2222 0.0000 0.5000  plane waves:    6974
 k-point    49 :   0.3333 0.0000 0.5000  plane waves:    6978
 k-point    50 :   0.4444 0.0000 0.5000  plane waves:    7004
 k-point    51 :   0.1111 0.1111 0.5000  plane waves:    7000
 k-point    52 :   0.2222 0.1111 0.5000  plane waves:    6976
 k-point    53 :   0.3333 0.1111 0.5000  plane waves:    6972
 k-point    54 :   0.4444 0.1111 0.5000  plane waves:    6988
 k-point    55 :   0.2222 0.2222 0.5000  plane waves:    6986
 k-point    56 :   0.3333 0.2222 0.5000  plane waves:    6992
 k-point    57 :   0.4444 0.2222 0.5000  plane waves:    6986
 k-point    58 :   0.3333 0.3333 0.5000  plane waves:    7014
 k-point    59 :   0.4444 0.3333 0.5000  plane waves:    7000
 k-point    60 :   0.4444 0.4444 0.5000  plane waves:    6970

 maximum and minimum number of plane-waves per node :      7014     6946

 maximum number of plane-waves:      7014
 maximum index in each direction:
   IXMAX=   10   IYMAX=   10   IZMAX=   15
   IXMIN=  -10   IYMIN=  -10   IZMIN=  -15

 serial   3D FFT for wavefunctions
 parallel 3D FFT for charge:
    minimum data exchange during FFTs selected (reduces bandwidth)

 Broyden mixing: mesh for mixing (old mesh)
   NGX = 21   NGY = 21   NGZ = 31
  (NGX  = 64   NGY  = 64   NGZ  = 96)
  gives a total of  13671 points

 initial charge density was supplied:
 charge density of overlapping atoms calculated
 number of electron     120.0000000 magnetization
 keeping initial charge density in first step

 Maximum index for augmentation-charges          455 (set IRDMAX)

 First call to EWALD:  gamma=   0.278
 Maximum number of real-space cells   3x   3x   2
 Maximum number of reciprocal cells   2x   2x   3

--------------------------------------- Ionic step        1  -------------------------------------------

--------------------------------------- Iteration      1(   1)  ---------------------------------------

 eigenvalue-minimisations  : 15360
 total energy-change (2. order) : 0.8895289E+03  (-0.5825274E+04)
 number of electron     120.0000000 magnetization
 augmentation part      120.0000000 magnetization

 Free energy of the ion-electron system (eV)
  alpha Z        PSCENC =       302.45033193
  Ewald energy   TEWEN  =     -8685.12768637
  -Hartree energ DENC   =     -4146.52216532
  -exchange      EXHF   =         0.00000000
  -V(xc)+E(xc)   XCENC  =       287.27892037
  PAW double counting   =     10646.12278294   -10233.80738393
  entropy T*S    EENTRO =        -0.00350436
  eigenvalues    EBANDS =      -413.84998389
  atomic energy  EATOM  =     13132.98755513
  Solvation  Ediel_sol  =         0.00000000
  free energy    TOTEN  =       889.52886651 eV

  energy without entropy =      889.53237086  energy(sigma->0) =      889.53003462

[...]

 eigenvalue-minimisations  : 15424
 total energy-change (2. order) :-0.9297630E+03  (-0.8920555E+03)
 number of electron     120.0000000 magnetization
 augmentation part      120.0000000 magnetization

[...]

 eigenvalue-minimisations  : 23808
 total energy-change (2. order) :-0.4838547E-01  (-0.4838450E-01)
 number of electron     119.9999824 magnetization
 augmentation part       26.9300238 magnetization

 Broyden mixing:
  rms(total) = 0.27332E+01    rms(broyden)= 0.27331E+01
  rms(prec ) = 0.37585E+01
  weight for this iteration     100.00

[...]

 eigenvalues of (default mixing * dielectric matrix)
  average eigenvalue GAMMA=   0.8363
  0.8363

[...]

 Broyden mixing:
  rms(total) = 0.54015E-02    rms(broyden)= 0.54011E-02
  rms(prec ) = 0.59997E-02
  weight for this iteration     100.00

 eigenvalues of (default mixing * dielectric matrix)
  average eigenvalue GAMMA=   1.5038
  2.8906  2.1190  1.9614  0.6682  0.9698  0.9587  0.9587

[...]

--------------------------------------- Iteration      1(  13)  ---------------------------------------

 eigenvalue-minimisations  : 21568
 total energy-change (2. order) : 0.4115733E-05  (-0.1562484E-05)
 number of electron     119.9999793 magnetization
 augmentation part       29.4153816 magnetization

 Free energy of the ion-electron system (eV)
  alpha Z        PSCENC =       302.45033193
  Ewald energy   TEWEN  =     -8685.12768637
  -Hartree energ DENC   =     -3929.82609535
  -exchange      EXHF   =         0.00000000
  -V(xc)+E(xc)   XCENC  =       279.28140890
  PAW double counting   =     13282.75534112   -12843.97857009
  entropy T*S    EENTRO =        -0.00104517
  eigenvalues    EBANDS =     -1637.65993029
  atomic energy  EATOM  =     13132.98755513
  Solvation  Ediel_sol  =         0.00000000
  free energy    TOTEN  =       -99.11869018 eV

  energy without entropy =      -99.11764501  energy(sigma->0) =      -99.11834179

 average (electrostatic) potential at core
  the test charge radii are     1.0397  1.0406
  (the norm of the test charge is              1.0000)
       1 -72.2927       2 -72.2927       3 -72.2927       4 -72.2927       5 -72.2927
       6 -72.2927       7 -72.2927       8 -72.2927       9 -71.3290      10 -71.3290
      11 -71.3290      12 -71.3290      13 -71.3290      14 -71.3290      15 -71.3290
      16 -71.3290

 E-fermi :   8.3308     XC(G=0): -11.0389     alpha+bet :-16.2322

 val. band max:        8.3234581174   @ k =   0.2222   0.0000   0.0000
 cond. band min:       8.3324845948   @ k =   0.4444   0.3333   0.1667
 fundamental gap:      0.0090264774
 Fermi energy:         8.3307544037

 k-point     1 :       0.0000    0.0000    0.0000
  band No.  band energies     occupation
      1     -48.3022      2.00000
      2     -48.3016      2.00000
      3     -48.2447      2.00000
      4     -48.2447      2.00000
      5     -48.2443      2.00000
      6     -48.2443      2.00000
      7     -48.1894      2.00000
      8     -48.1889      2.00000
      9     -24.7272      2.00000
     10     -24.7272      2.00000
     11     -24.7246      2.00000
     12     -24.7246      2.00000
     13     -24.7157      2.00000
     14     -24.6983      2.00000
     15     -24.6603      2.00000
     16     -24.6603      2.00000
     17     -24.6589      2.00000
     18     -24.6589      2.00000
     19     -24.6537      2.00000
     20     -24.6537      2.00000
     21     -24.6411      2.00000
     22     -24.6411      2.00000
     23     -24.5989      2.00000
     24     -24.5883      2.00000
     25     -24.2559      2.00000
     26     -24.2559      2.00000
     27     -24.2554      2.00000
     28     -24.2554      2.00000
     29     -24.2144      2.00000
     30     -24.2144      2.00000
     31     -24.2138      2.00000
     32     -24.2138      2.00000
     33      -0.7125      2.00000
     34       0.7639      2.00000
     35       3.0647      2.00000
     36       3.4099      2.00000
     37       3.4099      2.00000
     38       3.7561      2.00000
     39       3.7561      2.00000
     40       3.7942      2.00000
     41       3.7942      2.00000
     42       5.1380      2.00000
     43       5.3920      2.00000
     44       5.3920      2.00000
     45       5.8207      2.00000
     46       6.0603      2.00000
     47       6.0603      2.00000
     48       6.4710      2.00000
     49       6.6384      2.00000
     50       6.6384      2.00000
     51       7.1349      2.00000
     52       7.1349      2.00000
     53       7.1740      2.00000
     54       7.1740      2.00000
     55       7.4944      2.00000
     56       7.6656      2.00000
     57       7.8494      2.00000
     58       7.8494      2.00000
     59       7.9141      2.00000
     60       7.9888      2.00001
[...]
    114      18.6685      0.00000
    115      19.0545      0.00000
    116      19.0545      0.00000
    117      19.3931      0.00000
    118      19.3931      0.00000
    119      19.9488      0.00000
    120      20.5524      0.00000
    121      20.5525      0.00000
    122      20.5730      0.00000
    123      20.5730      0.00000
    124      20.9745      0.00000
    125      20.9767      0.00000
    126      20.9767      0.00000
    127      21.0257      0.00000
    128      21.0257      0.00000

[...]

 k-point    60 :       0.4444    0.4444    0.5000
  band No.  band energies     occupation
      1     -48.2550      2.00000
      2     -48.2550      2.00000
      3     -48.2452      2.00000
      4     -48.2452      2.00000
      5     -48.2452      2.00000
      6     -48.2452      2.00000
      7     -48.2354      2.00000
      8     -48.2354      2.00000
      9     -24.6589      2.00000
     10     -24.6589      2.00000
     11     -24.6490      2.00000
     12     -24.6490      2.00000
     13     -24.6490      2.00000
     14     -24.6490      2.00000
     15     -24.6392      2.00000
     16     -24.6392      2.00000
     17     -24.5121      2.00000
     18     -24.5121      2.00000
     19     -24.5121      2.00000
     20     -24.5121      2.00000
     21     -24.5085      2.00000
     22     -24.5085      2.00000
     23     -24.4950      2.00000
     24     -24.4950      2.00000
     25     -24.4385      2.00000
     26     -24.4385      2.00000
     27     -24.4248      2.00000
     28     -24.4248      2.00000
     29     -24.4221      2.00000
     30     -24.4221      2.00000
     31     -24.4221      2.00000
     32     -24.4221      2.00000
     33       1.5704      2.00000
     34       1.5704      2.00000
     35       2.0280      2.00000
     36       2.0280      2.00000
     37       2.0280      2.00000
     38       2.0280      2.00000
     39       2.4724      2.00000
     40       2.4724      2.00000
     41       6.0296      2.00000
     42       6.0296      2.00000
     43       6.2598      2.00000
     44       6.2598      2.00000
     45       6.2598      2.00000
     46       6.2598      2.00000
     47       6.4171      2.00000
     48       6.4171      2.00000
     49       7.6822      2.00000
     50       7.6822      2.00000
     51       7.6822      2.00000
     52       7.6822      2.00000
     53       7.7022      2.00000
     54       7.7022      2.00000
     55       8.0681      2.00129
     56       8.0681      2.00129
     57       8.2134      2.07006
     58       8.2134      2.07006
     59       8.3795      0.27339
     60       8.3795      0.27339
[...]
    114      17.9445      0.00000
    115      17.9445      0.00000
    116      17.9445      0.00000
    117      18.3898      0.00000
    118      18.3898      0.00000
    119      18.4499      0.00000
    120      18.4499      0.00000
    121      19.0491      0.00000
    122      19.0491      0.00000
    123      19.2060      0.00000
    124      19.2060      0.00000
    125      19.5806      0.00000
    126      19.5806      0.00000
    127      19.5806      0.00000
    128      19.5806      0.00000

 soft charge-density along one line, spin component           1
         0         1         2         3         4         5         6         7         8         9
 total charge-density along one line

------------------------ aborting loop because EDIFF is reached ----------------------------------------

  FORCE on cell =-STRESS in cart. coord.  units (eV):
  Direction    XX          YY          ZZ          XY          YZ          ZX
  Alpha Z   302.45033   302.45033   302.45033
  Ewald   -2316.54182 -2316.54182 -4052.05886    -0.00000    -0.00000    -0.00000
  Hartree  1817.03728  1817.03728   296.30681    -0.00000    -0.00000    -0.00000
  E(xc)    -576.54266  -576.54266  -578.24447     0.00000    -0.00000     0.00000
  Local   -1140.78276 -1140.78276  2153.65149    -0.00000     0.00000     0.00000
  n-local  -113.50333  -149.11761   -76.26943    -4.08031     1.12357     1.92335
  augment   493.97712   493.97712   471.29645     0.00000     0.00000    -0.00000
  Kinetic  1532.37024  1571.04450  1483.36884     2.22655    -2.81039    -1.47893
  Fock        0.00000     0.00000     0.00000     0.00000     0.00000     0.00000
  Total      -0.00561    -0.00561     0.50115     0.00000    -0.00000     0.00000
  in kB      -0.03464    -0.03464     3.09510     0.00000    -0.00000     0.00000

 VOLUME and BASIS-vectors are now :
  energy-cutoff  :      520.00
  volume of cell :      259.42
      direct lattice vectors                 reciprocal lattice vectors
     5.650681772  0.000000000  0.000000000     0.176969796  0.000000000  0.000000000
     0.000000000  5.650681772  0.000000000     0.000000000  0.176969796  0.000000000
     0.000000000  0.000000000  8.124629189     0.000000000  0.000000000  0.123082540

  length of vectors
     5.650681772  5.650681772  8.124629189     0.176969796  0.176969796  0.123082540

 FORCES acting on ions
    electron-ion (+dipol)            ewald-force                    non-local-force                 convergence-correction
   -.107E-14 -.178E-14 -.358E-13   0.103E-13 -.178E-14 -.178E-13   -.452E-24 -.310E-24 0.414E-24   0.120E-13 -.587E-13 -.265E-12
   -.107E-14 -.178E-14 0.108E-11   0.102E-13 -.178E-14 0.178E-13   0.165E-23 0.827E-24 0.165E-23   0.207E-14 -.160E-13 0.331E-12
   -.107E-14 0.392E-12 -.391E-13   0.103E-13 -.613E-14 -.178E-13   -.827E-24 -.103E-23 0.414E-24   0.745E-14 0.448E-13 -.282E-12
   -.107E-14 0.392E-12 0.108E-11   0.952E-14 -.613E-14 0.178E-13   0.414E-24 0.165E-23 0.165E-23   -.333E-15 -.304E-14 0.302E-12
   0.394E-12 -.127E-14 -.680E-11   -.380E-13 0.613E-14 -.178E-13   0.165E-23 -.124E-23 0.000E+00   -.245E-14 -.663E-13 -.322E-12
   0.394E-12 -.128E-14 0.431E-11   -.378E-13 0.613E-14 0.178E-13   0.000E+00 -.207E-23 0.207E-23   0.683E-14 -.111E-13 0.344E-12
   0.394E-12 0.393E-12 -.199E-11   -.380E-13 0.178E-14 -.178E-13   0.165E-23 0.000E+00 0.827E-24   0.143E-15 0.483E-13 -.295E-12
   0.394E-12 0.393E-12 0.252E-11   -.372E-13 0.178E-14 0.178E-13   -.414E-24 -.310E-24 0.414E-24   0.539E-14 -.943E-14 0.323E-12
   -.362E-14 -.141E-13 -.267E-12   0.214E-13 0.899E-16 -.131E-14   0.000E+00 0.000E+00 -.414E-24   -.844E-14 0.503E-14 0.121E-13
   -.336E-14 -.137E-13 -.316E-12   0.208E-13 0.849E-16 0.139E-14   0.000E+00 -.827E-24 -.827E-24   -.462E-14 0.194E-14 -.152E-13
   -.223E-14 -.800E-14 -.237E-12   0.211E-13 -.389E-15 -.132E-14   -.827E-24 -.181E-24 0.827E-24   -.823E-14 -.523E-14 0.779E-14
   -.311E-14 -.582E-14 -.286E-12   0.206E-13 -.394E-15 0.138E-14   0.103E-23 0.827E-24 0.207E-23   -.446E-14 -.214E-14 -.111E-13
   -.113E-13 0.628E-12 0.489E-12   0.634E-14 0.504E-15 -.138E-14   0.414E-24 0.827E-24 -.290E-23   0.838E-14 0.541E-14 0.130E-13
   -.117E-13 -.257E-13 0.755E-12   0.687E-14 0.499E-15 0.132E-14   -.827E-24 0.000E+00 0.827E-24   0.456E-14 0.227E-14 -.162E-13
   -.106E-13 0.453E-12 0.101E-12   0.655E-14 0.251E-16 -.139E-14   0.414E-24 0.000E+00 -.827E-24   0.811E-14 -.565E-14 0.842E-14
   -.107E-13 0.464E-12 0.420E-12   0.709E-14 0.201E-16 0.131E-14   0.827E-24 -.827E-24 0.186E-23   0.433E-14 -.250E-14 -.117E-13
   0.151E-11 0.304E-11 0.790E-12   0.114E-15 0.440E-15 -.394E-30   0.472E-23 -.266E-23 0.807E-23   0.307E-13 -.724E-13 0.124E-12

 POSITION                                       TOTAL-FORCE (eV/Angst)
      0.00000      0.00000      0.00000         0.000000      0.000000      0.000000
      0.00000      0.00000      4.06231        -0.000000      0.000000      0.000000
      0.00000      2.82534      0.00000        -0.000000      0.000000     -0.000000
      0.00000      2.82534      4.06231        -0.000000     -0.000000      0.000000
      2.82534      0.00000      0.00000         0.000000      0.000000      0.000000
      2.82534      0.00000      4.06231        -0.000000     -0.000000      0.000000
      2.82534      2.82534      0.00000         0.000000      0.000000      0.000000
      2.82534      2.82534      4.06231        -0.000000      0.000000     -0.000000
      1.41267      1.41267      2.03116        -0.000000     -0.000000      0.000000
      1.41267      1.41267      6.09347        -0.000000      0.000000      0.000000
      1.41267      4.23801      2.03116         0.000000     -0.000000     -0.000000
      1.41267      4.23801      6.09347        -0.000000      0.000000     -0.000000
      4.23801      1.41267      2.03116         0.000000     -0.000000     -0.000000
      4.23801      1.41267      6.09347         0.000000     -0.000000     -0.000000
      4.23801      4.23801      2.03116         0.000000      0.000000      0.000000
      4.23801      4.23801      6.09347        -0.000000     -0.000000      0.000000
    total drift:                                0.000000      0.000000      0.000000

  FREE ENERGIE OF THE ION-ELECTRON SYSTEM (eV)
  free  energy   TOTEN  =       -99.11869018 eV

  energy  without entropy=      -99.11764501  energy(sigma->0) =      -99.11834179

 writing wavefunctions