 vasp.6.5.0 16Dec24 (build Apr 17 2025 17:55:45) complex

 executed on             LinuxIFC date 2025.06.10  15:03:05

 INCAR:
   ISTART = 0
   ICHARG = 2
   PREC = N
   LREAL = .FALSE.
   ENCUT = 520
   ALGO = N
   NELM = 500
   EDIFF = 1E-05
   IBRION = -1
   ISIF = 3
   NSW = 0
   EDIFFG = -0.01
   ISMEAR = 1
   SIGMA = 0.1
   LVHAR = .TRUE.
   LVTOT = .TRUE.

 POTCAR:    PAW_PBE Ga_d 06Jul2010
 POTCAR:    PAW_PBE Ti_sv 26Sep2005
 POTCAR:    PAW_PBE Al 04Jan2001
|           W    W    AA    RRRRR   N    N  II  N    N   GGGG   !!!           |
|           W    W   A  A   R    R  NN   N  II  NN   N  G    G  !!!           |
|           W    W  A    A  R    R  N N  N  II  N N  N  G       !!!           |
|           W WW W  AAAAAA  RRRRR   N  N N  II  N  N N  G  GGG   !            |
|           WW  WW  A    A  R   R   N   NN  II  N   NN  G    G                |
|           W    W  A    A  R    R  N    N  II  N    N   GGGG   !!!           |
|     For optimal performance we recommend to set                             |
|       NCORE = 2 up to number-of-cores-per-socket                            |
|     This setting can greatly improve the performance of VASP for DFT.       |
|     The default, NCORE=1 might be grossly inefficient on modern             |
|     multi-core architectures or massively parallel machines. Do your        |
|     Unfortunately you need to use the default for GW and RPA                |
|     calculations (for HF NCORE is supported but not extensively tested      |
|     yet).                                                                   |

   TITEL  = PAW_PBE Ga_d 06Jul2010
   POMASS =   69.723; ZVAL   =   13.000    mass and valenz
   ENMAX  =  282.691; ENMIN  =  212.018 eV

   TITEL  = PAW_PBE Ti_sv 26Sep2005
   POMASS =   47.880; ZVAL   =   12.000    mass and valenz
   ENMAX  =  274.610; ENMIN  =  205.957 eV

   TITEL  = PAW_PBE Al 04Jan2001
   POMASS =   26.981; ZVAL   =    3.000    mass and valenz
   ENMAX  =  240.300; ENMIN  =  180.225 eV

  PAW_PBE Ga_d 06Jul2010                :
  PAW_PBE Ti_sv 26Sep2005               :
  PAW_PBE Al 04Jan2001                  :

 POSCAR: Generated by VASPKIT code
  positions in direct lattice

 exchange-correlation table for PE
   RHO(1)=    0.500       N(1)  =     2000
   RHO(2)=  100.500       N(2)  =     4000

 ion  position               nearest neighbor table
   1  0.000  0.000  0.358-   5 2.80   9 2.80  22 2.88  24 2.88  26 2.88  28 2.88  17 2.88  19 2.88

   2  0.500  0.000  0.547-   5 2.80   6 2.80   9 2.80  10 2.80  18 2.88  20 2.88  21 2.88  23 2.88
                            25 2.88  27 2.88  30 2.88  32 2.88
   3  0.000  0.500  0.358-   7 2.80  11 2.80  24 2.85  26 2.85  22 2.85  28 2.85  17 2.85  19 2.85

   4  0.500  0.500  0.547-   7 2.80   8 2.80  11 2.80  12 2.80  18 2.85  20 2.85  23 2.85  25 2.85
                            21 2.85  27 2.85  30 2.85  32 2.85
   5  0.750  0.000  0.453-   1 2.80   2 2.80  13 2.80  14 2.80  17 2.87  32 2.87  30 2.87  19 2.87
                            26 2.87  28 2.87  21 2.87  23 2.87
   6  0.250  0.000  0.642-   2 2.80  13 2.80  18 2.87  20 2.87  31 2.87  29 2.87  25 2.87  27 2.87

[...]

  29  0.000  0.748  0.641-  21 2.79  25 2.79  15 2.84   8 2.85  12 2.85  13 2.87  10 2.87   6 2.87

  30  0.500  0.748  0.452-  22 2.79  26 2.79  25 2.81  21 2.81  16 2.84   7 2.85  11 2.85   4 2.85
                            14 2.87   9 2.87   5 2.87   2 2.88
  31  0.000  0.252  0.641-  23 2.79  27 2.79  15 2.84  12 2.85   8 2.85  13 2.87   6 2.87  10 2.87

  32  0.500  0.252  0.452-  24 2.79  28 2.79  27 2.81  23 2.81  16 2.84  11 2.85   7 2.85   4 2.85
                            14 2.87   5 2.87   9 2.87   2 2.88

  LATTYP: Found a simple orthorhombic cell.
 ALAT       =     7.9294275173
 B/A-ratio  =     1.0393822904
 C/A-ratio  =     2.6426345186

  Lattice vectors:

 A1 = (   7.9294275173,   0.0000000000,   0.0000000000)
 A2 = (   0.0000000000,   8.2417065342,   0.0000000000)
 A3 = (   0.0000000000,   0.0000000000,  20.9545788695)

Analysis of symmetry for initial positions (statically):
 Subroutine PRICEL returns:
 Original cell was already a primitive cell.

 Routine SETGRP: Setting up the symmetry group for a
 simple orthorhombic supercell.

 Subroutine GETGRP returns: Found  4 space group operations
 (whereof  4 operations were pure point group operations)
 out of a pool of  8 trial point group operations.

The static configuration has the point symmetry C_2v.

Analysis of symmetry for dynamics (positions and initial velocities):
 Subroutine PRICEL returns:
 Original cell was already a primitive cell.

 Routine SETGRP: Setting up the symmetry group for a
 simple orthorhombic supercell.

 Subroutine GETGRP returns: Found  4 space group operations
 (whereof  4 operations were pure point group operations)
 out of a pool of  8 trial point group operations.

The dynamic configuration has the point symmetry C_2v.

 Subroutine INISYM returns: Found  4 space group operations
 (whereof  4 operations are pure point group operations),
 and found     1 'primitive' translations

                                     Primitive cell

  volume of cell :    1369.4239

  direct lattice vectors                    reciprocal lattice vectors
     7.929427517  0.000000000  0.000000000     0.126112509 -0.000000000 -0.000000000
     0.000000000  8.241706534  0.000000000     0.000000000  0.121334095 -0.000000000
     0.000000000  0.000000000 20.954578870     0.000000000  0.000000000  0.047722267

  length of vectors
     7.929427517  8.241706534 20.954578870     0.126112509  0.121334095  0.047722267

  position of ions in fractional coordinates (direct lattice)
     0.000000000  0.000000000  0.357917000
     0.500000000  0.000000000  0.547122127
     0.000000000  0.500000000  0.357917000
     0.500000000  0.500000000  0.547122127
     0.750000000  0.000000000  0.452519563
     0.250000000  0.000000000  0.641724690
     0.750000000  0.500000000  0.452519563
     0.250000000  0.500000000  0.641724690
     0.250000000  0.000000000  0.452519563
     0.750000000  0.000000000  0.641724690
     0.250000000  0.500000000  0.452519563
     0.750000000  0.500000000  0.641724690
     0.000000000  0.000000000  0.547122127
     0.500000000  0.000000000  0.357917000
     0.000000000  0.500000000  0.547122127
     0.500000000  0.500000000  0.357917000
     0.000000000  0.747928775  0.452877873
     0.500000000  0.747928775  0.642083000
     0.000000000  0.252071225  0.452877873
     0.500000000  0.252071225  0.642083000
     0.750946882  0.747928775  0.547122127
     0.250946882  0.747928775  0.357917000
     0.750946882  0.252071225  0.547122127
     0.250946882  0.252071225  0.357917000
     0.249053118  0.747928775  0.547122127
     0.749053118  0.747928775  0.357917000
     0.249053118  0.252071225  0.547122127
     0.749053118  0.252071225  0.357917000
     0.000000000  0.747928775  0.641366381
     0.500000000  0.747928775  0.452161253
     0.000000000  0.252071225  0.641366381
     0.500000000  0.252071225  0.452161253

  ion indices of the primitive-cell ions
   primitive index   ion index
                 1           1
                 2           2
                 3           3
                 4           4
                 5           5
                 6           6
                 7           7
                 8           8
                 9           9
                10          10
                11          11
                12          12
                13          13
                14          14
                15          15
                16          16
                17          17
                18          18
                19          19
                20          20
                21          21
                22          22
                23          23
                24          24
                25          25
                26          26
                27          27
                28          28
                29          29
                30          30
                31          31
                32          32

 KPOINTS: K-Spacing Value to Generate K-Mesh: 0.03

Automatic generation of k-mesh.
 Grid dimensions read from file:
 generate k-points for:    4    4    1

 Generating k-lattice:

  Cartesian coordinates                     Fractional coordinates (reciprocal lattice)
     0.031528127 -0.000000000 -0.000000000     0.250000000  0.000000000  0.000000000
     0.000000000  0.030333524 -0.000000000     0.000000000  0.250000000  0.000000000
     0.000000000  0.000000000  0.047722267     0.000000000  0.000000000  1.000000000

  Length of vectors
     0.031528127  0.030333524  0.047722267

  Shift w.r.t. Gamma in fractional coordinates (k-lattice)
     0.000000000  0.000000000  0.000000000

 Subroutine IBZKPT returns following result:

 Found      9 irreducible k-points:

 Following reciprocal coordinates:
            Coordinates               Weight
  0.000000  0.000000  0.000000      1.000000
  0.250000  0.000000  0.000000      2.000000
  0.500000  0.000000  0.000000      1.000000
  0.000000  0.250000  0.000000      2.000000
  0.250000  0.250000  0.000000      4.000000
  0.500000  0.250000  0.000000      2.000000
  0.000000  0.500000  0.000000      1.000000
  0.250000  0.500000  0.000000      2.000000
  0.500000  0.500000  0.000000      1.000000

 Following cartesian coordinates:
            Coordinates               Weight
  0.000000  0.000000  0.000000      1.000000
  0.031528  0.000000  0.000000      2.000000
  0.063056  0.000000  0.000000      1.000000
  0.000000  0.030334  0.000000      2.000000
  0.031528  0.030334  0.000000      4.000000
  0.063056  0.030334  0.000000      2.000000
  0.000000  0.060667  0.000000      1.000000
  0.031528  0.060667  0.000000      2.000000
  0.063056  0.060667  0.000000      1.000000

 SYSTEM =  unknown system
 POSCAR =  Generated by VASPKIT code

 Startparameter for this run:
   NWRITE =      2    write-flag & timer
   PREC   = n         normal or accurate (medium, high low for compatibility)
   ISTART =      0    job   : 0-new  1-cont  2-samecut
   ICHARG =      2    charge: 1-file 2-atom 10-const
   ISPIN  =      1    spin polarized calculation?
   LNONCOLLINEAR =      F non collinear calculations
   LSORBIT =      F    spin-orbit coupling
   INIWAV =      1    electr: 0-lowe 1-rand  2-diag
   LASPH  =      F    aspherical Exc in radial PAW
 Electronic Relaxation 1
   ENCUT  =  520.0 eV  38.22 Ry    6.18 a.u.  14.74 15.32 38.96*2*pi/ulx,y,z
   ENINI  =  520.0     initial cutoff
   ENAUG  =  490.7 eV  augmentation charge cutoff
   NELM   =    500;   NELMIN=  2; NELMDL= -5     # of ELM steps
   EDIFF  = 0.1E-04   stopping-criterion for ELM
   LREAL  =      F    real-space projection
   NLSPLINE    = F    spline interpolate recip. space projectors
   LCOMPAT=      F    compatible to vasp.4.4
   GGA_COMPAT  = T    GGA compatible to vasp.4.4-vasp.4.6
   LMAXPAW     = -100 max onsite density
   LMAXMIX     =    2 max onsite mixed and CHGCAR
   VOSKOWN=      0    Vosko Wilk Nusair interpolation
   ROPT   =    0.00000   0.00000   0.00000
 Ionic relaxation
   EDIFFG = -.1E-01   stopping-criterion for IOM
[...]
  8.8600  5.4103  3.2024  2.6894  2.1349  2.1349  2.0322  1.2619  1.2619  0.9957
  0.9957  0.8549  0.8549  0.7316  0.6735  0.6735  0.4284  0.1516  0.1516  0.1541
  0.1673  0.2259  0.2259  0.2062  0.2279  0.2194

[...]

--------------------------------------- Iteration      1(  32)  ---------------------------------------

 eigenvalue-minimisations  :  3072
 total energy-change (2. order) :-0.5471120E-05  (-0.1787693E-07)
 number of electron     242.0000064 magnetization
 augmentation part       68.6041156 magnetization

 Free energy of the ion-electron system (eV)
  alpha Z        PSCENC =       238.52296072
  Ewald energy   TEWEN  =     39200.44369667
  -Hartree energ DENC   =    -62874.36986708
  -exchange      EXHF   =         0.00000000
  -V(xc)+E(xc)   XCENC  =       515.35539811
  PAW double counting   =     25888.03673505   -25731.99577608
  entropy T*S    EENTRO =        -0.00423801
  eigenvalues    EBANDS =     -4797.43435864
  atomic energy  EATOM  =     27387.45954937
  Solvation  Ediel_sol  =         0.00000000
  free energy    TOTEN  =      -173.98589989 eV

  energy without entropy =     -173.98166188  energy(sigma->0) =     -173.98448722

 average (electrostatic) potential at core
  the test charge radii are     1.0314  1.0397  1.0406
  (the norm of the test charge is              1.0000)
       1 -69.6980       2 -69.5715       3 -80.3901       4 -79.8093       5 -80.0403
       6 -80.4338       7 -79.9621       8 -80.4190       9 -80.0403      10 -80.4338
      11 -79.9621      12 -80.4190      13 -79.9201      14 -80.4314      15 -79.8750
      16 -80.3746      17 -79.0964      18 -79.1744      19 -79.0964      20 -79.1744
      21 -79.0990      22 -79.2660      23 -79.0990      24 -79.2660      25 -79.0990
      26 -79.2660      27 -79.0990      28 -79.2660      29 -79.0352      30 -79.1217
      31 -79.0352      32 -79.1217

 E-fermi :   0.6940     XC(G=0):  -5.1828     alpha+bet : -6.0601

 val. band max:        0.6793924728   @ k =   0.0000   0.0000   0.0000
 cond. band min:       0.6960607731   @ k =   0.5000   0.5000   0.0000
 fundamental gap:      0.0166683003
 Fermi energy:         0.6940043297

 k-point     1 :       0.0000    0.0000    0.0000
  band No.  band energies     occupation
      1     -56.3787      2.00000
      2     -56.3747      2.00000
      3     -56.3732      2.00000
      4     -56.3621      2.00000
      5     -56.3599      2.00000
      6     -56.3348      2.00000
      7     -56.3189      2.00000
      8     -55.9939      2.00000
      9     -55.9907      2.00000
     10     -55.9208      2.00000
     11     -55.9142      2.00000
     12     -55.8628      2.00000
     13     -55.8254      2.00000
     14     -55.7615      2.00000
     15     -32.8051      2.00000
     16     -32.8020      2.00000
     17     -32.7646      2.00000
     18     -32.7632      2.00000
     19     -32.7528      2.00000
     20     -32.7354      2.00000
     21     -32.7043      2.00000
     22     -32.6671      2.00000
     23     -32.6029      2.00000
     24     -32.5929      2.00000
     25     -32.5829      2.00000
     26     -32.5811      2.00000
     27     -32.5794      2.00000
     28     -32.5791      2.00000
     29     -32.5757      2.00000
     30     -32.5726      2.00000
     31     -32.5696      2.00000
     32     -32.5572      2.00000
     33     -32.5547      2.00000
     34     -32.5482      2.00000
     35     -32.5200      2.00000
     36     -32.3476      2.00000
     37     -32.3422      2.00000
     38     -32.3314      2.00000
     39     -32.3269      2.00000
     40     -32.3219      2.00000
     41     -32.3108      2.00000
     42     -32.2608      2.00000
     43     -32.2242      2.00000
     44     -32.2185      2.00000
     45     -32.2178      2.00000
     46     -32.1963      2.00000
     47     -32.1796      2.00000
     48     -32.1727      2.00000
     49     -32.1649      2.00000
     50     -32.1203      2.00000
     51     -31.9759      2.00000
     52     -31.9629      2.00000
     53     -31.9520      2.00000
     54     -31.9363      2.00000
     55     -31.9147      2.00000
     56     -31.8985      2.00000
     57     -14.1269      2.00000
     58     -14.1267      2.00000
     59     -14.1113      2.00000
     60     -14.1034      2.00000
[...]
    178       4.2360      0.00000
    179       4.3508      0.00000
    180       4.4942      0.00000
    181       4.5631      0.00000
    182       4.5953      0.00000
    183       4.6812      0.00000
    184       4.6856      0.00000
    185       4.7612      0.00000
    186       4.9093      0.00000
    187       4.9382      0.00000
    188       4.9897      0.00000
    189       5.1857      0.00000
    190       5.1895      0.00000
    191       5.3788      0.00000
    192       5.4502      0.00000

[...]

 k-point     9 :       0.5000    0.5000    0.0000
  band No.  band energies     occupation
      1     -56.3787      2.00000
      2     -56.3744      2.00000
      3     -56.3735      2.00000
      4     -56.3610      2.00000
      5     -56.3609      2.00000
      6     -56.3347      2.00000
      7     -56.3191      2.00000
      8     -55.9948      2.00000
      9     -55.9899      2.00000
     10     -55.9188      2.00000
     11     -55.9165      2.00000
     12     -55.8628      2.00000
     13     -55.8250      2.00000
     14     -55.7617      2.00000
     15     -32.8062      2.00000
     16     -32.8009      2.00000
     17     -32.7642      2.00000
     18     -32.7585      2.00000
     19     -32.7582      2.00000
     20     -32.7329      2.00000
     21     -32.7051      2.00000
     22     -32.6673      2.00000
     23     -32.5923      2.00000
     24     -32.5921      2.00000
     25     -32.5918      2.00000
     26     -32.5807      2.00000
     27     -32.5765      2.00000
     28     -32.5764      2.00000
     29     -32.5761      2.00000
     30     -32.5751      2.00000
     31     -32.5687      2.00000
     32     -32.5643      2.00000
     33     -32.5557      2.00000
     34     -32.5361      2.00000
     35     -32.5319      2.00000
     36     -32.3463      2.00000
     37     -32.3386      2.00000
     38     -32.3329      2.00000
     39     -32.3305      2.00000
     40     -32.3182      2.00000
     41     -32.3155      2.00000
     42     -32.2600      2.00000
     43     -32.2250      2.00000
     44     -32.2248      2.00000
     45     -32.2099      2.00000
     46     -32.1941      2.00000
     47     -32.1927      2.00000
     48     -32.1643      2.00000
     49     -32.1631      2.00000
     50     -32.1203      2.00000
     51     -31.9784      2.00000
     52     -31.9608      2.00000
     53     -31.9461      2.00000
     54     -31.9343      2.00000
     55     -31.9192      2.00000
     56     -31.9009      2.00000
     57     -14.1269      2.00000
     58     -14.1267      2.00000
     59     -14.1112      2.00000
     60     -14.1034      2.00000
[...]
    178       4.1469      0.00000
    179       4.2636      0.00000
    180       4.3065      0.00000
    181       4.3170      0.00000
    182       4.6149      0.00000
    183       4.6813      0.00000
    184       4.8119      0.00000
    185       4.8533      0.00000
    186       4.9837      0.00000
    187       5.0403      0.00000
    188       5.2148      0.00000
    189       5.2273      0.00000
    190       5.2960      0.00000
    191       5.3374      0.00000
    192       5.3753      0.00000

 soft charge-density along one line, spin component           1
         0         1         2         3         4         5         6         7         8         9
 total charge-density along one line

------------------------ aborting loop because EDIFF is reached ----------------------------------------

  FORCE on cell =-STRESS in cart. coord.  units (eV):
  Direction    XX          YY          ZZ          XY          YZ          ZX
  Alpha Z   238.52296   238.52296   238.52296
  Ewald   51630.04838 48719.61540-61149.26728    -0.00000    -0.00000     0.00000
  Hartree 58089.71819 55555.21086-50770.58246    -0.00000    -0.00000    -0.00000
  E(xc)   -1174.96165 -1176.81070 -1177.45811    -0.00000     0.00000     0.00000
  Local  ************************109098.84603     0.00000    -0.00000     0.00000
  n-local  -150.85003   -95.80679  -150.54390     0.28176    -0.00000    -0.00000
  augment  1111.67577  1091.43686  1100.00601     0.00000     0.00000    -0.00000
  Kinetic  2812.98974  2760.89172  2807.16075     1.93077     0.00000     0.00000
  Fock        0.00000     0.00000     0.00000     0.00000     0.00000     0.00000
  Total     -24.25176   -14.92180    -3.31600    -0.00000    -0.00000    -0.00000
  in kB     -28.37369   -17.45798    -3.87960    -0.00000    -0.00000    -0.00000

 VOLUME and BASIS-vectors are now :
  energy-cutoff  :      520.00
  volume of cell :     1369.42
      direct lattice vectors                 reciprocal lattice vectors
     7.929427517  0.000000000  0.000000000     0.126112509 -0.000000000 -0.000000000
     0.000000000  8.241706534  0.000000000     0.000000000  0.121334095 -0.000000000
     0.000000000  0.000000000 20.954578870     0.000000000  0.000000000  0.047722267

  length of vectors
     7.929427517  8.241706534 20.954578870     0.126112509  0.121334095  0.047722267

 FORCES acting on ions
    electron-ion (+dipol)            ewald-force                    non-local-force                 convergence-correction
   -.801E-13 0.141E-12 0.199E+04   -.282E-13 -.354E-13 -.199E+04   -.548E-16 -.548E-16 -.230E+01   0.561E-13 -.146E-12 0.649E-03
   0.172E-11 0.780E-13 -.686E+03   -.997E-13 0.101E-13 0.688E+03   -.372E-16 -.372E-16 -.156E+01   -.852E-13 -.504E-13 0.144E-02
   -.113E-13 0.116E-11 0.184E+04   0.363E-14 -.311E-13 -.184E+04   -.112E-15 -.112E-15 -.468E+01   0.418E-13 0.512E-13 0.102E-02
   0.952E-12 -.400E-12 -.633E+03   -.759E-14 -.154E-13 0.634E+03   -.270E-16 -.270E-16 -.113E+01   -.581E-13 0.120E-12 0.108E-02
   -.413E+00 -.110E-12 0.624E+03   -.962E-01 0.153E-13 -.625E+03   0.302E-01 0.278E-16 0.111E+01   0.381E-03 -.151E-12 0.152E-02
   0.107E+02 0.683E-13 -.186E+04   -.117E+02 0.109E-13 0.185E+04   0.116E+01 0.919E-16 0.383E+01   -.170E-03 0.873E-14 0.776E-07
   -.818E-01 0.924E-12 0.624E+03   -.977E-01 -.154E-13 -.626E+03   0.260E+00 0.278E-16 0.128E+01   0.636E-03 0.195E-13 0.176E-02
   0.153E+01 -.455E-12 -.185E+04   -.159E+01 0.251E-13 0.184E+04   0.130E+00 0.111E-15 0.467E+01   -.307E-03 0.916E-13 -.175E-03
   0.413E+00 -.966E-13 0.624E+03   0.962E-01 0.492E-14 -.625E+03   -.302E-01 0.278E-16 0.111E+01   -.381E-03 -.125E-12 0.152E-02
   -.107E+02 -.248E-12 -.186E+04   0.117E+02 0.519E-13 0.185E+04   -.116E+01 0.919E-16 0.383E+01   0.170E-03 0.615E-13 0.776E-07
   0.818E-01 0.161E-11 0.624E+03   0.977E-01 -.258E-13 -.626E+03   -.260E+00 0.278E-16 0.128E+01   -.636E-03 0.458E-13 0.176E-02
   -.153E+01 0.105E-11 -.185E+04   0.159E+01 0.244E-13 0.184E+04   -.130E+00 0.111E-15 0.467E+01   0.307E-03 0.136E-12 -.175E-03
   -.401E-13 -.966E-13 -.638E+03   0.558E-15 0.128E-13 0.640E+03   -.200E-16 -.200E-16 -.838E+00   0.104E-12 -.479E-13 0.110E-02
   0.101E-11 -.828E-13 0.185E+04   -.124E-13 -.107E-13 -.184E+04   -.146E-15 -.146E-15 -.611E+01   -.162E-13 -.129E-12 0.659E-03
   -.215E-13 0.106E-11 -.633E+03   0.527E-13 0.289E-13 0.635E+03   -.235E-16 -.235E-16 -.985E+00   0.102E-12 0.110E-12 0.839E-03
   0.995E-12 -.149E-11 0.184E+04   0.196E-13 -.154E-13 -.184E+04   -.120E-15 -.120E-15 -.504E+01   -.215E-13 0.265E-13 0.779E-03
   0.172E-13 -.207E+00 0.152E+03   0.179E-13 -.600E+00 -.151E+03   0.282E-16 0.833E+00 -.957E+00   0.175E-13 -.399E-04 0.393E-03
   -.273E-13 0.990E-01 -.459E+03   0.220E-13 -.744E+00 0.458E+03   0.649E-16 0.657E+00 0.107E+01   -.132E-13 -.108E-04 -.976E-05
   0.542E-14 0.207E+00 0.152E+03   -.560E-14 0.600E+00 -.151E+03   -.726E-16 -.833E+00 -.957E+00   0.174E-13 0.399E-04 0.393E-03
   -.348E-13 -.990E-01 -.459E+03   -.124E-13 0.744E+00 0.458E+03   -.123E-16 -.657E+00 0.107E+01   -.127E-13 0.108E-04 -.976E-05
   -.116E+01 -.488E+00 -.156E+03   0.184E+01 -.350E+00 0.156E+03   -.683E+00 0.921E+00 0.231E+00   0.883E-04 -.613E-04 0.264E-03
   -.736E+00 -.590E+00 0.456E+03   0.192E+01 -.113E+01 -.454E+03   -.118E+01 0.165E+01 -.182E+01   -.822E-04 0.630E-04 0.203E-03
   -.116E+01 0.488E+00 -.156E+03   0.184E+01 0.350E+00 0.156E+03   -.683E+00 -.921E+00 0.231E+00   0.883E-04 0.613E-04 0.264E-03
   -.736E+00 0.590E+00 0.456E+03   0.192E+01 0.113E+01 -.454E+03   -.118E+01 -.165E+01 -.182E+01   -.822E-04 -.630E-04 0.203E-03
   0.116E+01 -.488E+00 -.156E+03   -.184E+01 -.350E+00 0.156E+03   0.683E+00 0.921E+00 0.231E+00   -.883E-04 -.613E-04 0.264E-03
   0.736E+00 -.590E+00 0.456E+03   -.192E+01 -.113E+01 -.454E+03   0.118E+01 0.165E+01 -.182E+01   0.822E-04 0.630E-04 0.203E-03
   0.116E+01 0.488E+00 -.156E+03   -.184E+01 0.350E+00 0.156E+03   0.683E+00 -.921E+00 0.231E+00   -.883E-04 0.613E-04 0.264E-03
   0.736E+00 0.590E+00 0.456E+03   -.192E+01 0.113E+01 -.454E+03   0.118E+01 -.165E+01 -.182E+01   0.822E-04 -.630E-04 0.203E-03
   -.186E-13 -.165E+01 -.456E+03   0.168E-13 0.160E+01 0.455E+03   0.559E-16 0.274E+00 0.164E+01   0.169E-13 -.356E-04 -.659E-04
   -.660E-14 -.480E+00 0.156E+03   0.386E-14 -.601E+00 -.157E+03   0.795E-16 0.117E+01 0.315E+00   -.162E-13 -.230E-05 0.388E-03
   -.195E-13 0.165E+01 -.456E+03   0.183E-13 -.160E+01 0.455E+03   0.226E-16 -.274E+00 0.164E+01   0.160E-13 0.356E-04 -.659E-04
   0.383E-15 0.480E+00 0.156E+03   0.153E-13 0.601E+00 -.157E+03   -.627E-16 -.117E+01 0.315E+00   -.165E-13 0.230E-05 0.388E-03
   0.111E-10 0.413E-11 0.303E+01   -.495E-13 0.944E-14 0.199E-11   -.571E-15 0.000E+00 -.305E+01   0.809E-13 0.269E-13 0.171E-01

 POSITION                                       TOTAL-FORCE (eV/Angst)
      0.00000      0.00000      7.50000         0.000000      0.000000      0.140171
      3.96471      0.00000     11.46471         0.000000      0.000000      0.366677
      0.00000      4.12085      7.50000         0.000000      0.000000      0.240763
      3.96471      4.12085     11.46471         0.000000      0.000000      0.045134
      5.94707      0.00000      9.48236        -0.478732      0.000000      0.195962
      1.98236      0.00000     13.44707         0.149351     -0.000000     -0.655261
      5.94707      4.12085      9.48236         0.081536     -0.000000     -0.168895
      1.98236      4.12085     13.44707         0.067644     -0.000000     -0.452717
      1.98236      0.00000      9.48236         0.478732      0.000000      0.195962
      5.94707      0.00000     13.44707        -0.149351     -0.000000     -0.655261
      1.98236      4.12085      9.48236        -0.081536     -0.000000     -0.168895
      5.94707      4.12085     13.44707        -0.067644     -0.000000     -0.452717
      0.00000      0.00000     11.46471         0.000000      0.000000      0.287466
      3.96471      0.00000      7.50000        -0.000000     -0.000000     -0.219830
      0.00000      4.12085     11.46471         0.000000      0.000000      0.462358
      3.96471      4.12085      7.50000        -0.000000     -0.000000     -0.271248
      0.00000      6.16421      9.48987        -0.000000      0.026461     -0.215831
      3.96471      6.16421     13.45458         0.000000      0.012206      0.077372
      0.00000      2.07750      9.48987        -0.000000     -0.026461     -0.215831
      3.96471      2.07750     13.45458         0.000000     -0.012206      0.077372
      5.95458      6.16421     11.46471        -0.010684      0.083217      0.345106
      1.98987      6.16421      7.50000        -0.003607     -0.071187      0.077250
      5.95458      2.07750     11.46471        -0.010684     -0.083217      0.345106
      1.98987      2.07750      7.50000        -0.003607      0.071187      0.077250
      1.97485      6.16421     11.46471         0.010684      0.083217      0.345106
      5.93956      6.16421      7.50000         0.003607     -0.071187      0.077250
      1.97485      2.07750     11.46471         0.010684     -0.083217      0.345106
      5.93956      2.07750      7.50000         0.003607      0.071187      0.077250
      0.00000      6.16421     13.43956         0.000000      0.218483      0.043803
      3.96471      6.16421      9.47485         0.000000      0.088175     -0.194889
      0.00000      2.07750     13.43956        -0.000000     -0.218483      0.043803
      3.96471      2.07750      9.47485        -0.000000     -0.088175     -0.194889
    total drift:                                0.000000      0.000000     -0.001350

  FREE ENERGIE OF THE ION-ELECTRON SYSTEM (eV)
  free  energy   TOTEN  =      -173.98589989 eV

  energy  without entropy=     -173.98166188  energy(sigma->0) =     -173.98448722

 writing wavefunctions