 vasp.6.5.0 16Dec24 (build Apr 17 2025 17:55:45) complex

 executed on             LinuxIFC date 2025.06.10  15:07:34

 INCAR:
   ISTART = 0
   ICHARG = 2
   PREC = N
   LREAL = .FALSE.
   ENCUT = 520
   ALGO = N
   NELM = 500
   EDIFF = 1E-05
   IBRION = -1
   ISIF = 3
   NSW = 0
   EDIFFG = -0.01
   ISMEAR = 1
   SIGMA = 0.1
   LVHAR = .TRUE.
   LVTOT = .TRUE.

 POTCAR:    PAW_PBE Ga_d 06Jul2010
 POTCAR:    PAW_PBE Ti_sv 26Sep2005
 POTCAR:    PAW_PBE Al 04Jan2001
|           W    W    AA    RRRRR   N    N  II  N    N   GGGG   !!!           |
|           W    W   A  A   R    R  NN   N  II  NN   N  G    G  !!!           |
|           W    W  A    A  R    R  N N  N  II  N N  N  G       !!!           |
|           W WW W  AAAAAA  RRRRR   N  N N  II  N  N N  G  GGG   !            |
|           WW  WW  A    A  R   R   N   NN  II  N   NN  G    G                |
|           W    W  A    A  R    R  N    N  II  N    N   GGGG   !!!           |
|     For optimal performance we recommend to set                             |
|       NCORE = 2 up to number-of-cores-per-socket                            |
|     This setting can greatly improve the performance of VASP for DFT.       |
|     The default, NCORE=1 might be grossly inefficient on modern             |
|     multi-core architectures or massively parallel machines. Do your        |
|     Unfortunately you need to use the default for GW and RPA                |
|     calculations (for HF NCORE is supported but not extensively tested      |
|     yet).                                                                   |

   TITEL  = PAW_PBE Ga_d 06Jul2010
   POMASS =   69.723; ZVAL   =   13.000    mass and valenz
   ENMAX  =  282.691; ENMIN  =  212.018 eV

   TITEL  = PAW_PBE Ti_sv 26Sep2005
   POMASS =   47.880; ZVAL   =   12.000    mass and valenz
   ENMAX  =  274.610; ENMIN  =  205.957 eV

   TITEL  = PAW_PBE Al 04Jan2001
   POMASS =   26.981; ZVAL   =    3.000    mass and valenz
   ENMAX  =  240.300; ENMIN  =  180.225 eV

  PAW_PBE Ga_d 06Jul2010                :
  PAW_PBE Ti_sv 26Sep2005               :
  PAW_PBE Al 04Jan2001                  :

 POSCAR: Generated by VASPKIT code
  positions in direct lattice

 exchange-correlation table for PE
   RHO(1)=    0.500       N(1)  =     2000
   RHO(2)=  100.500       N(2)  =     4000

 ion  position               nearest neighbor table
   1  0.000  0.000  0.309-  25 2.73  39 2.75  33 2.75  30 3.06
   2  0.333  0.333  0.448-  47 2.73  26 2.73  42 2.75  36 2.75  37 2.75  31 2.75  45 3.06  28 3.06

   3  0.667  0.667  0.587-  48 2.73  27 2.73  40 2.75  34 2.75  38 2.75  32 2.75  43 3.06  29 3.06

[...]

  21  0.000  0.500  0.309-  45 2.72  33 2.74  39 2.74  47 3.05
  22  0.000  0.000  0.517-  25 2.70  46 2.70  37 2.72  31 2.72  34 2.72  40 2.72  28 3.03  43 3.03

  23  0.333  0.333  0.656-  26 2.70  32 2.72  38 2.72  35 2.72  41 2.72  44 3.03  29 3.03
  24  0.667  0.667  0.378-  48 2.70  39 2.72  42 2.72  33 2.72  36 2.72  30 3.03  45 3.03
  25  0.999  0.000  0.413-  22 2.70   1 2.73  16 2.73  10 2.73   7 2.75  13 2.75  37 2.93  31 2.93
                            33 2.96  39 2.96   4 3.04  19 3.05
  26  0.333  0.334  0.552-  23 2.70   2 2.73  11 2.73  17 2.73   8 2.75  14 2.75  32 2.93  38 2.93
                            37 2.96  31 2.96   5 3.04  20 3.05
  27  0.666  0.667  0.691-   3 2.73  15 2.75   9 2.75  32 2.96  38 2.96   6 3.04
  28  0.669  0.166  0.482-   4 2.71  20 2.72  16 2.73  10 2.73   8 2.75  14 2.75  34 2.93  40 2.93
                            36 2.96  42 2.96  22 3.03   2 3.06
  29  0.002  0.499  0.621-   5 2.71  11 2.73  17 2.73  15 2.75   9 2.75  41 2.93  35 2.93  40 2.96
                            34 2.96  23 3.03   3 3.06
  30  0.335  0.832  0.343-  19 2.72  18 2.73  12 2.73   7 2.75  13 2.75  42 2.93  36 2.93  24 3.03
                             1 3.06
  31  0.165  0.166  0.483-  17 2.70  22 2.72   7 2.72   5 2.73  19 2.74   2 2.75  43 2.93  25 2.93
                            26 2.96  45 2.96  10 3.03  14 3.06
  32  0.499  0.500  0.622-  23 2.72   8 2.72   6 2.73  20 2.74   3 2.75  26 2.93  44 2.93  43 2.96
                            27 2.96  11 3.03  15 3.06
  33  0.832  0.833  0.344-  16 2.70  24 2.72   4 2.73  21 2.74   1 2.75  45 2.93  25 2.96  12 3.03
                            13 3.06
  34  0.835  0.332  0.552-  10 2.70  22 2.72  15 2.72   5 2.73  20 2.74   3 2.75  28 2.93  46 2.93
                            29 2.96  48 2.96  17 3.03   8 3.06
  35  0.168  0.665  0.690-  11 2.70  23 2.72   6 2.73  29 2.93  46 2.96   9 3.06
  36  0.501  0.998  0.413-  12 2.70  24 2.72  14 2.72   4 2.73  19 2.74   2 2.75  48 2.93  30 2.93
                            47 2.96  28 2.96  16 3.03   7 3.06
  37  0.165  0.668  0.483-  11 2.70  22 2.72  13 2.72   5 2.73  19 2.74   2 2.75  43 2.93  25 2.93
                            26 2.96  45 2.96  16 3.03   8 3.06
  38  0.499  0.002  0.622-  23 2.72  14 2.72   6 2.73  20 2.74   3 2.75  26 2.93  44 2.93  43 2.96
                            27 2.96  17 3.03   9 3.06
  39  0.832  0.335  0.344-  10 2.70  24 2.72   4 2.73  21 2.74   1 2.75  45 2.93  25 2.96  18 3.03
                             7 3.06
  40  0.835  0.834  0.552-  16 2.70  22 2.72   9 2.72   5 2.73  20 2.74   3 2.75  28 2.93  46 2.93
                            29 2.96  48 2.96  11 3.03  14 3.06
  41  0.168  0.167  0.690-  17 2.70  23 2.72   6 2.73  29 2.93  46 2.96  15 3.06
  42  0.501  0.500  0.413-  18 2.70  24 2.72   8 2.72   4 2.73  19 2.74   2 2.75  48 2.93  30 2.93
                            47 2.96  28 2.96  10 3.03  13 3.06
  43  0.331  0.834  0.552-   6 2.71  19 2.72  11 2.73  17 2.73   8 2.75  14 2.75  37 2.93  31 2.93
                            32 2.96  38 2.96  22 3.03   3 3.06
  44  0.665  0.168  0.691-  20 2.72   9 2.75  15 2.75  32 2.93  38 2.93  23 3.03
  45  0.998  0.501  0.413-   5 2.71  21 2.72  10 2.73  16 2.73  13 2.75   7 2.75  33 2.93  39 2.93
                            37 2.96  31 2.96  24 3.03   2 3.06
  46  0.001  1.000  0.621-  22 2.70  17 2.73  11 2.73   9 2.75  15 2.75  34 2.93  40 2.93  35 2.96
                            41 2.96   6 3.04  20 3.05
  47  0.334  0.333  0.343-   2 2.73  18 2.73  12 2.73  13 2.75   7 2.75  36 2.96  42 2.96   4 3.04
                            21 3.05
  48  0.667  0.666  0.482-  24 2.70   3 2.73  10 2.73  16 2.73   8 2.75  14 2.75  42 2.93  36 2.93
                            40 2.96  34 2.96   5 3.04  19 3.05

  LATTYP: Found a base centered monoclinic cell.
 ALAT       =    18.2914932997
 B/A-ratio  =     0.4335035630
 C/A-ratio  =     1.4227125368
 COS(beta)  =    -0.1533071409

  Lattice vectors:

 A1 = (   9.9681310671,   0.0000000000,   0.0000000000)
 A2 = (   6.8142890717,   7.2752389252,   0.0000000000)
 A3 = (  -3.6604470762,  -1.5868168496,  25.7159018676)

Analysis of symmetry for initial positions (statically):
 Subroutine PRICEL returns:
 Original cell was already a primitive cell.

 Routine SETGRP: Setting up the symmetry group for a
 base centered monoclinic supercell.

 Subroutine GETGRP returns: Found  2 space group operations
 (whereof  2 operations were pure point group operations)
 out of a pool of  4 trial point group operations.

The static configuration has the point symmetry C_1h.

Analysis of symmetry for dynamics (positions and initial velocities):
 Subroutine PRICEL returns:
 Original cell was already a primitive cell.

 Routine SETGRP: Setting up the symmetry group for a
 base centered monoclinic supercell.

 Subroutine GETGRP returns: Found  2 space group operations
 (whereof  2 operations were pure point group operations)
 out of a pool of  4 trial point group operations.

The dynamic configuration has the point symmetry C_1h.

 Subroutine INISYM returns: Found  2 space group operations
 (whereof  2 operations are pure point group operations),
 and found     1 'primitive' translations

                                     Primitive cell

  volume of cell :    1864.9310

  direct lattice vectors                    reciprocal lattice vectors
     6.814289072  7.275238925  0.000000000     0.100319708  0.043488951  0.016963200
    -3.153841995  7.275238925  0.000000000    -0.100319708  0.093963580 -0.008481600
    -3.660447076 -1.586816850 25.715901868     0.000000000  0.000000000  0.038886445

  length of vectors
     9.968131067  7.929427517 26.023536834     0.110648465  0.137713963  0.038886445

  position of ions in fractional coordinates (direct lattice)
     0.000000000  1.000000000  0.308690526
     0.333333333  0.333333333  0.447624372
     0.666666667  0.666666667  0.586558218
     0.666666667  0.166666667  0.378157449
     0.000000000  0.500000000  0.517091295
     0.333333333  0.833333333  0.656025141
     0.166666667  0.166666667  0.378157449
     0.500000000  0.500000000  0.517091295
     0.833333333  0.833333333  0.656025141
     0.833333333  0.333333333  0.447624372
     0.166666667  0.666666667  0.586558218
     0.500000000  1.000000000  0.308690526
     0.166666667  0.666666667  0.378157449
     0.500000000  1.000000000  0.517091295
     0.833333333  0.333333333  0.656025141
     0.833333333  0.833333333  0.447624372
     0.166666667  0.166666667  0.586558218
     0.500000000  0.500000000  0.308690526
     0.333333333  0.833333333  0.447624372
     0.666666667  0.166666667  0.586558218
     0.000000000  0.500000000  0.308690526
     0.000000000  1.000000000  0.517091295
     0.333333333  0.333333333  0.656025141
     0.666666667  0.666666667  0.378157449
     0.999250438  0.000374781  0.413441782
     0.332583771  0.333708114  0.552375628
     0.665917104  0.667041448  0.691309474
     0.668678738  0.165660631  0.482333178
     0.002012071  0.498993964  0.621267024
     0.335345405  0.832327298  0.343399332
     0.165285850  0.166410193  0.482645597
     0.498619183  0.499743526  0.621579443
     0.831952517  0.833076860  0.343711751
     0.834714150  0.331696043  0.551536993
     0.168047483  0.665029376  0.690470839
     0.501380817  0.998362710  0.412603147
     0.165285850  0.668303957  0.482645597
     0.498619183  0.001637290  0.621579443
     0.831952517  0.334970624  0.343711751
     0.834714150  0.833589807  0.551536993
     0.168047483  0.166923140  0.690470839
     0.501380817  0.500256474  0.412603147
     0.331321262  0.834339369  0.551849412
     0.664654595  0.167672702  0.690783258
     0.997987929  0.501006036  0.412915566
     0.000749562  0.999625219  0.620740808
     0.334082896  0.332958552  0.342873117
     0.667416229  0.666291886  0.481806962

  ion indices of the primitive-cell ions
   primitive index   ion index
                 1           1
                 2           2
                 3           3
                 4           4
                 5           5
                 6           6
                 7           7
                 8           8
                 9           9
                10          10
                11          11
                12          12
                13          13
                14          14
                15          15
                16          16
                17          17
                18          18
                19          19
                20          20
[...]
     36     -31.8837      2.00000
     37     -31.8695      2.00000
     38     -31.8665      2.00000
     39     -31.8642      2.00000
     40     -31.8340      2.00000
     41     -31.8186      2.00000
     42     -31.8116      2.00000
     43     -31.8056      2.00000
     44     -31.7988      2.00000
     45     -31.7681      2.00000
     46     -31.7671      2.00000
     47     -31.7663      2.00000
     48     -31.7636      2.00000
     49     -31.7500      2.00000
     50     -31.7439      2.00000
     51     -31.7147      2.00000
     52     -31.7060      2.00000
     53     -31.6976      2.00000
     54     -31.6918      2.00000
     55     -31.6866      2.00000
     56     -31.6817      2.00000
     57     -31.6751      2.00000
     58     -31.6685      2.00000
     59     -31.6623      2.00000
     60     -31.6607      2.00000
[...]
    242       3.3968      0.00000
    243       3.4169      0.00000
    244       3.4782      0.00000
    245       3.6093      0.00000
    246       3.6502      0.00000
    247       3.6791      0.00000
    248       3.7367      0.00000
    249       3.8342      0.00000
    250       3.8684      0.00000
    251       3.9392      0.00000
    252       4.0497      0.00000
    253       4.1087      0.00000
    254       4.1345      0.00000
    255       4.1945      0.00000
    256       4.3909      0.00000

[...]

 k-point    11 :      -0.2500    0.4000    0.0000
  band No.  band energies     occupation
      1     -55.9516      2.00000
      2     -55.9513      2.00000
      3     -55.8862      2.00000
      4     -55.6689      2.00000
      5     -55.6684      2.00000
      6     -55.6194      2.00000
      7     -55.5651      2.00000
      8     -55.4598      2.00000
      9     -55.4587      2.00000
     10     -55.4164      2.00000
     11     -55.4156      2.00000
     12     -55.3167      2.00000
     13     -55.3030      2.00000
     14     -55.2906      2.00000
     15     -55.2824      2.00000
     16     -55.2733      2.00000
     17     -55.2658      2.00000
     18     -55.2608      2.00000
     19     -55.2580      2.00000
     20     -55.2507      2.00000
     21     -55.2484      2.00000
     22     -32.3832      2.00000
     23     -32.3830      2.00000
     24     -32.3203      2.00000
     25     -32.1746      2.00000
     26     -32.1744      2.00000
     27     -32.1153      2.00000
     28     -32.1098      2.00000
     29     -32.0944      2.00000
     30     -32.0880      2.00000
     31     -32.0861      2.00000
     32     -32.0843      2.00000
     33     -32.0134      2.00000
     34     -31.9567      2.00000
     35     -31.8960      2.00000
     36     -31.8894      2.00000
     37     -31.8692      2.00000
     38     -31.8660      2.00000
     39     -31.8650      2.00000
     40     -31.8294      2.00000
     41     -31.8170      2.00000
     42     -31.8132      2.00000
     43     -31.8055      2.00000
     44     -31.8043      2.00000
     45     -31.7672      2.00000
     46     -31.7663      2.00000
     47     -31.7658      2.00000
     48     -31.7645      2.00000
     49     -31.7479      2.00000
     50     -31.7459      2.00000
     51     -31.7133      2.00000
     52     -31.7055      2.00000
     53     -31.7007      2.00000
     54     -31.6885      2.00000
     55     -31.6864      2.00000
     56     -31.6846      2.00000
     57     -31.6777      2.00000
     58     -31.6674      2.00000
     59     -31.6594      2.00000
     60     -31.6549      2.00000
[...]
    242       3.4681      0.00000
    243       3.4871      0.00000
    244       3.5284      0.00000
    245       3.5883      0.00000
    246       3.6163      0.00000
    247       3.6464      0.00000
    248       3.7309      0.00000
    249       3.7798      0.00000
    250       3.8364      0.00000
    251       3.9159      0.00000
    252       3.9507      0.00000
    253       4.0799      0.00000
    254       4.1069      0.00000
    255       4.1462      0.00000
    256       4.2210      0.00000

 soft charge-density along one line, spin component           1
         0         1         2         3         4         5         6         7         8         9
 total charge-density along one line

------------------------ aborting loop because EDIFF is reached ----------------------------------------

  FORCE on cell =-STRESS in cart. coord.  units (eV):
  Direction    XX          YY          ZZ          XY          YZ          ZX
  Alpha Z   394.08315   394.08315   394.08315
  Ewald  110968.31845112568.55051************  -854.23956   493.96538  1139.47249
  Hartree121325.86607122638.28760************  -700.59921   477.59533  1101.70984
  E(xc)   -1767.78801 -1766.65754 -1769.29121    -0.60333     0.44888     1.03536
  Local  ************************238228.47213  1567.64238  -986.21591 -2274.98854
  n-local  -173.25599  -207.92439  -212.57034    18.43511   -12.26492   -28.26367
  augment  1640.44272  1657.05219  1643.33061    -8.86940     4.35601    10.04123
  Kinetic  4173.76578  4229.58370  4227.16352   -29.62750     8.33362    19.20098
  Fock        0.00000     0.00000     0.00000     0.00000     0.00000     0.00000
  Total     -27.32154   -12.51154    13.92860    -7.90591   -13.78202   -31.79216
  in kB     -23.47215   -10.74877    11.96617    -6.79203   -11.84024   -27.31291

 VOLUME and BASIS-vectors are now :
  energy-cutoff  :      520.00
  volume of cell :     1864.93
      direct lattice vectors                 reciprocal lattice vectors
     6.814289072  7.275238925  0.000000000     0.100319708  0.043488951  0.016963200
    -3.153841995  7.275238925  0.000000000    -0.100319708  0.093963580 -0.008481600
    -3.660447076 -1.586816850 25.715901868     0.000000000  0.000000000  0.038886445

  length of vectors
     9.968131067  7.929427517 26.023536834     0.110648465  0.137713963  0.038886445

 FORCES acting on ions
    electron-ion (+dipol)            ewald-force                    non-local-force                 convergence-correction
   0.452E+02 0.196E+02 0.279E+04   -.429E+02 -.186E+02 -.279E+04   -.209E+01 -.907E+00 0.149E+01   0.666E-04 0.289E-04 0.234E-03
   -.365E+00 -.158E+00 0.681E+03   0.419E+00 0.182E+00 -.682E+03   -.108E+00 -.469E-01 0.654E+00   0.189E-04 0.820E-05 0.318E-03
   -.573E+00 -.248E+00 -.159E+04   0.323E+00 0.140E+00 0.159E+04   0.194E+00 0.840E-01 -.443E+00   0.849E-04 0.368E-04 0.908E-03
   -.625E+01 -.271E+01 0.169E+04   0.620E+01 0.269E+01 -.169E+04   -.605E-01 -.262E-01 0.658E-01   0.131E-03 0.566E-04 0.630E-03
   0.962E+00 0.417E+00 -.429E+03   -.112E+01 -.483E+00 0.428E+03   0.149E+00 0.644E-01 -.147E+00   0.147E-04 0.635E-05 0.642E-03
   -.539E+02 -.234E+02 -.246E+04   0.528E+02 0.229E+02 0.246E+04   0.637E+00 0.276E+00 0.340E+01   0.106E-04 0.459E-05 0.216E-03
   -.675E+01 -.329E+01 0.169E+04   0.677E+01 0.344E+01 -.169E+04   -.151E+00 0.262E+00 0.587E-01   0.155E-03 -.184E-03 0.500E-03
   0.336E+00 0.126E+00 -.428E+03   -.409E+00 -.315E+00 0.428E+03   0.111E+00 0.145E+00 -.175E+00   0.108E-03 -.128E-03 0.687E-03
   -.633E+02 -.372E+02 -.246E+04   0.619E+02 0.376E+02 0.246E+04   0.985E+00 -.745E+00 0.229E+01   -.145E-03 0.129E-03 0.114E-03
   -.487E-01 -.149E+00 0.629E+03   -.139E-02 0.586E-01 -.629E+03   0.924E-01 0.719E-01 0.303E+00   0.797E-04 -.216E-03 0.374E-03
   0.382E+01 -.158E+00 -.147E+04   -.356E+01 0.980E-01 0.147E+04   -.365E-01 -.125E-01 -.780E+00   -.333E-04 0.141E-03 0.651E-03
   0.373E+02 0.171E+02 0.259E+04   -.365E+02 -.169E+02 -.258E+04   -.247E+00 0.412E-01 -.666E+01   -.876E-05 -.117E-04 0.467E-04
   -.702E+01 -.268E+01 0.169E+04   0.714E+01 0.259E+01 -.169E+04   0.881E-01 -.290E+00 0.587E-01   -.283E-04 0.239E-03 0.500E-03
   0.322E+00 0.159E+00 -.428E+03   -.509E+00 -.832E-01 0.428E+03   0.182E+00 -.180E-01 -.175E+00   -.194E-04 0.166E-03 0.687E-03
   -.704E+02 -.208E+02 -.246E+04   0.698E+02 0.194E+02 0.246E+04   0.130E+00 0.123E+01 0.229E+01   -.501E-05 -.194E-03 0.114E-03
   -.142E+00 0.659E-01 0.629E+03   0.418E-01 -.410E-01 -.629E+03   0.116E+00 0.183E-01 0.303E+00   -.103E-03 0.206E-03 0.374E-03
   0.249E+01 0.289E+01 -.147E+04   -.236E+01 -.267E+01 0.147E+04   -.341E-01 -.181E-01 -.780E+00   0.800E-04 -.121E-03 0.651E-03
   0.380E+02 0.155E+02 0.259E+04   -.373E+02 -.151E+02 -.258E+04   -.139E+00 -.209E+00 -.666E+01   -.145E-04 0.160E-05 0.467E-04
   -.632E+00 -.274E+00 0.630E+03   0.423E+00 0.183E+00 -.629E+03   -.192E-01 -.832E-02 -.128E+00   -.185E-03 -.803E-04 0.248E-03
   -.198E+01 -.858E+00 -.147E+04   0.204E+01 0.883E+00 0.147E+04   0.695E-01 0.301E-01 -.333E+00   0.179E-03 0.776E-04 0.820E-03
   0.409E+02 0.177E+02 0.259E+04   -.405E+02 -.176E+02 -.258E+04   0.288E-01 0.125E-01 -.779E+01   0.361E-04 0.156E-04 -.520E-04
   0.115E+01 0.501E+00 -.430E+03   -.130E+01 -.564E+00 0.430E+03   0.100E+00 0.436E-01 -.121E+00   -.672E-04 -.291E-04 0.657E-03
   -.593E+02 -.257E+02 -.246E+04   0.574E+02 0.249E+02 0.245E+04   0.145E+01 0.630E+00 0.316E+01   0.171E-03 0.743E-04 0.212E-03
   -.702E+01 -.304E+01 0.169E+04   0.678E+01 0.294E+01 -.169E+04   0.164E+00 0.713E-01 -.824E-01   0.322E-04 0.140E-04 0.498E-03
   -.154E+00 -.667E-01 0.285E+03   -.347E+00 -.150E+00 -.284E+03   0.497E+00 0.215E+00 -.139E+01   0.167E-04 0.723E-05 0.110E-03
   -.120E+01 -.519E+00 -.242E+03   0.756E+00 0.328E+00 0.243E+03   0.451E+00 0.196E+00 -.166E+01   0.297E-04 0.129E-04 0.209E-03
   0.234E+02 0.101E+02 -.698E+03   -.216E+02 -.938E+01 0.696E+03   -.224E+01 -.973E+00 0.163E+01   0.237E-04 0.103E-04 -.428E-04
   -.577E+00 -.250E+00 0.241E+02   0.113E+01 0.489E+00 -.241E+02   -.423E+00 -.183E+00 0.146E+00   0.213E-04 0.923E-05 0.157E-03
   0.545E+01 0.236E+01 -.519E+03   -.462E+01 -.200E+01 0.518E+03   -.730E+00 -.316E+00 0.195E+01   -.362E-04 -.157E-04 0.149E-03
   -.152E+01 -.660E+00 0.562E+03   0.252E+01 0.109E+01 -.561E+03   -.465E+00 -.202E+00 -.142E+01   -.420E-04 -.182E-04 0.938E-04
   -.351E+00 0.988E+00 0.243E+02   -.151E+00 -.233E+01 -.237E+02   0.569E+00 0.140E+01 -.606E+00   0.172E-04 -.390E-04 0.110E-03
   0.489E+01 0.335E+01 -.519E+03   -.519E+01 -.453E+01 0.518E+03   0.286E+00 0.131E+01 0.126E+01   0.308E-04 -.289E-04 0.133E-03
   -.144E+01 0.633E+00 0.562E+03   0.929E+00 -.225E+01 -.561E+03   0.960E+00 0.197E+01 -.222E+01   -.181E-04 0.292E-04 0.849E-04
   -.132E+01 0.837E+00 -.238E+03   0.259E+01 -.142E+01 0.238E+03   -.137E+01 0.606E+00 0.513E+00   0.971E-05 -.791E-04 0.221E-03
   0.253E+02 0.102E+02 -.696E+03   -.230E+02 -.928E+01 0.692E+03   -.281E+01 -.113E+01 0.311E+01   0.476E-05 0.785E-05 -.333E-04
   -.158E-01 0.108E+01 0.289E+03   0.137E+01 -.167E+01 -.290E+03   -.133E+01 0.655E+00 0.578E+00   -.876E-05 0.667E-05 0.104E-03
   0.481E+00 -.931E+00 0.243E+02   -.180E+01 0.148E+01 -.237E+02   0.141E+01 -.544E+00 -.606E+00   -.167E-04 0.392E-04 0.110E-03
   0.579E+01 0.128E+01 -.519E+03   -.686E+01 -.691E+00 0.518E+03   0.115E+01 -.687E+00 0.126E+01   -.700E-07 0.422E-04 0.133E-03
   -.522E+00 -.148E+01 0.562E+03   -.100E+01 0.221E+01 -.561E+03   0.209E+01 -.645E+00 -.222E+01   0.891E-05 -.331E-04 0.849E-04
   -.288E+00 -.153E+01 -.238E+03   0.730E+00 0.286E+01 0.238E+03   -.496E+00 -.142E+01 0.513E+00   -.511E-04 0.612E-04 0.221E-03
   0.247E+02 0.115E+02 -.696E+03   -.225E+02 -.104E+02 0.692E+03   -.274E+01 -.128E+01 0.311E+01   0.898E-05 -.189E-05 -.333E-04
   0.776E+00 -.749E+00 0.289E+03   -.279E+00 0.214E+01 -.290E+03   -.435E+00 -.142E+01 0.578E+00   -.112E-05 -.110E-04 0.104E-03
   0.165E+00 0.716E-01 -.238E+03   -.657E+00 -.285E+00 0.238E+03   0.405E+00 0.176E+00 -.980E-01   -.324E-04 -.141E-04 0.187E-03
   0.224E+02 0.971E+01 -.695E+03   -.207E+02 -.897E+01 0.692E+03   -.215E+01 -.934E+00 0.279E+01   0.259E-04 0.112E-04 -.819E-04
   0.930E+00 0.403E+00 0.290E+03   -.163E+01 -.706E+00 -.290E+03   0.676E+00 0.293E+00 -.387E+00   0.152E-04 0.660E-05 0.103E-03
   0.642E+01 0.278E+01 -.517E+03   -.624E+01 -.271E+01 0.516E+03   -.334E+00 -.145E+00 0.216E+01   -.595E-04 -.258E-04 0.972E-04
   -.840E+00 -.364E+00 0.566E+03   0.114E+01 0.496E+00 -.567E+03   -.310E-02 -.134E-02 0.454E+00   -.894E-05 -.387E-05 0.943E-04
   0.692E+00 0.300E+00 0.282E+02   -.137E+00 -.594E-01 -.296E+02   -.505E+00 -.219E+00 0.183E+01   -.597E-05 -.259E-05 0.117E-03
   0.593E+01 0.257E+01 -.109E+01   0.360E-13 0.187E-12 0.547E-12   -.594E+01 -.257E+01 0.108E+01   0.490E-03 0.212E-03 0.125E-01

 POSITION                                       TOTAL-FORCE (eV/Angst)
     -1.12995     -0.48984      7.93826         0.224452      0.097301      0.271264
     -0.41836      4.13986     11.51106        -0.053814     -0.023329      0.045541
      0.29323      8.76956     15.08387        -0.056114     -0.024325      0.138176
      2.63299      5.46263      9.72466        -0.108877     -0.047199     -0.848463
     -3.46971      2.81709     13.29747        -0.005034     -0.002182     -0.191075
     -2.75812      7.44679     16.87028        -0.452379     -0.196108      0.387829
     -0.77415      1.82501      9.72466        -0.128754      0.407620     -0.535497
     -0.06256      6.45471     13.29747         0.038516     -0.043896     -0.215952
      0.64903     11.08441     16.87028        -0.365867     -0.256628     -0.008035
      2.98879      7.77748     11.51106         0.042368     -0.018287      0.356891
     -3.11391      5.13194     15.08387         0.217778     -0.072401      0.172541
      2.27720      3.14778      7.93826         0.498926      0.248101      0.807480
     -2.35107      5.46263      9.72466         0.209484     -0.372623     -0.535497
      1.51436      2.81709     13.29747        -0.005708      0.058119     -0.215952
      2.22595      7.44679     16.87028        -0.437410     -0.091595     -0.008035
      1.41187     11.41510     11.51106         0.015616      0.043423      0.356891
     -1.53699      1.49432     15.08387         0.096033      0.208439      0.172541
      0.70028      6.78540      7.93826         0.522146      0.194538      0.807480
     -1.99528      7.77748     11.51106        -0.229235     -0.099374      0.155389
      1.87015      5.13194     15.08387         0.127953      0.055468      0.526552
     -2.70687      3.14778      7.93826         0.443406      0.192218      0.812814
     -1.89279     -0.82053     13.29747        -0.046722     -0.020254     -0.037057
     -1.18120      3.80917     16.87028        -0.416210     -0.180429      0.575917
      1.05607      9.10025      9.72466        -0.072715     -0.031522     -1.161948
      5.29462      6.61646     10.63203        -0.003525     -0.001528     -0.267816
     -0.80808      3.97091     14.20484         0.010256      0.004446     -0.384182
     -0.09649      8.60061     17.77765        -0.518322     -0.224694     -0.376562
      2.26855      5.30464     12.40363         0.127843      0.055420      0.201804
     -3.83415      2.65910     15.97644         0.094517      0.040973      0.764966
     -1.59688      7.95019      8.83082         0.536363      0.232515     -0.503326
     -1.16522      1.64730     12.41167         0.066497      0.064705     -0.041910
     -0.45364      6.27699     15.98448        -0.011670      0.125951      0.560636
      1.78363     11.56808      8.83886         0.449174      0.354921     -0.621716
      2.62299      7.61072     14.18327        -0.103096      0.022053      0.006984
     -3.47971      4.96518     17.75608        -0.556186     -0.244891     -0.182259
     -1.24244     10.25627     10.61046         0.020388      0.066719     -0.224527
     -2.74812      5.29869     12.41167         0.092683      0.004300     -0.041910
      1.11731      2.65315     15.98448         0.083948     -0.094619      0.560636
      3.35458      7.94424      8.83886         0.566098      0.085203     -0.621716
      1.04010     11.26212     14.18327        -0.054382     -0.090320      0.006984
     -1.90876      1.34134     17.75608        -0.558947     -0.238523     -0.182259
      0.32851      6.63242     10.61046         0.062632     -0.030729     -0.224527
     -2.39367      7.60478     14.19131        -0.086750     -0.037606     -0.362986
      1.47176      4.95923     17.76411        -0.449721     -0.194956     -0.339858
      3.70903     10.25032     10.61850        -0.022380     -0.009702     -0.472221
     -5.41974      6.29296     15.96291        -0.154706     -0.067065      0.873003
     -0.02863      4.30881      8.81729         0.301295      0.130612     -0.375322
      0.68296      8.93851     12.39010         0.050153      0.021741      0.418287
    total drift:                               -0.000600     -0.000232      0.000001

  FREE ENERGIE OF THE ION-ELECTRON SYSTEM (eV)
  free  energy   TOTEN  =      -258.78985948 eV

  energy  without entropy=     -258.77636279  energy(sigma->0) =     -258.78536058

 writing wavefunctions