 vasp.6.5.0 16Dec24 (build Apr 17 2025 17:55:45) complex

 executed on             LinuxIFC date 2025.06.10  11:34:24

 INCAR:
   ISTART = 0
   ICHARG = 2
   PREC = N
   LREAL = .FALSE.
   ENCUT = 520
   ALGO = N
   NELM = 500
   EDIFF = 1E-05
   IBRION = -1
   ISIF = 3
   NSW = 0
   EDIFFG = -0.01
   ISMEAR = 1
   SIGMA = 0.1
   LVHAR = .TRUE.
   LVTOT = .TRUE.

 POTCAR:    PAW_PBE Ti_sv 26Sep2005
 POTCAR:    PAW_PBE Ga_d 06Jul2010
 POTCAR:    PAW_PBE Al 04Jan2001
|           W    W    AA    RRRRR   N    N  II  N    N   GGGG   !!!           |
|           W    W   A  A   R    R  NN   N  II  NN   N  G    G  !!!           |
|           W    W  A    A  R    R  N N  N  II  N N  N  G       !!!           |
|           W WW W  AAAAAA  RRRRR   N  N N  II  N  N N  G  GGG   !            |
|           WW  WW  A    A  R   R   N   NN  II  N   NN  G    G                |
|           W    W  A    A  R    R  N    N  II  N    N   GGGG   !!!           |
|     For optimal performance we recommend to set                             |
|       NCORE = 2 up to number-of-cores-per-socket                            |
|     This setting can greatly improve the performance of VASP for DFT.       |
|     The default, NCORE=1 might be grossly inefficient on modern             |
|     multi-core architectures or massively parallel machines. Do your        |
|     Unfortunately you need to use the default for GW and RPA                |
|     calculations (for HF NCORE is supported but not extensively tested      |
|     yet).                                                                   |

   TITEL  = PAW_PBE Ti_sv 26Sep2005
   POMASS =   47.880; ZVAL   =   12.000    mass and valenz
   ENMAX  =  274.610; ENMIN  =  205.957 eV

   TITEL  = PAW_PBE Ga_d 06Jul2010
   POMASS =   69.723; ZVAL   =   13.000    mass and valenz
   ENMAX  =  282.691; ENMIN  =  212.018 eV

   TITEL  = PAW_PBE Al 04Jan2001
   POMASS =   26.981; ZVAL   =    3.000    mass and valenz
   ENMAX  =  240.300; ENMIN  =  180.225 eV

  PAW_PBE Ti_sv 26Sep2005               :
  PAW_PBE Ga_d 06Jul2010                :
  PAW_PBE Al 04Jan2001                  :

 POSCAR: Generated by VASPKIT code
  positions in direct lattice

 exchange-correlation table for PE
   RHO(1)=    0.500       N(1)  =     2000
   RHO(2)=  100.500       N(2)  =     4000

 ion  position               nearest neighbor table
   1  0.000  0.999  0.326-   5 2.82   9 2.82  17 2.84  22 2.84  26 2.84  19 2.85  28 2.85  24 2.85

   2  0.500  0.999  0.500-   6 2.82  10 2.82   9 2.82   5 2.82  18 2.84  21 2.84  25 2.84  30 2.84
                            20 2.85  27 2.85  23 2.85  32 2.85
   3  0.000  0.501  0.326-   7 2.82  11 2.82  17 2.84  26 2.84  22 2.84  19 2.85  24 2.85  28 2.85

   4  0.500  0.501  0.500-   8 2.82  12 2.82  11 2.82   7 2.82  18 2.84  25 2.84  21 2.84  30 2.84
                            20 2.85  23 2.85  27 2.85  32 2.85
   5  0.750  0.999  0.413-   1 2.82  13 2.82   2 2.82  17 2.84  21 2.84  26 2.84  30 2.84  19 2.85
                            28 2.85  23 2.85  32 2.85
   6  0.250  0.999  0.587-   2 2.82  14 2.82  13 2.82  18 2.84  25 2.84  29 2.84  20 2.85  27 2.85
                            31 2.85
   7  0.750  0.501  0.413-   3 2.82  15 2.82   4 2.82  17 2.84  21 2.84  26 2.84  30 2.84  19 2.85
                            28 2.85  23 2.85  32 2.85
   8  0.250  0.501  0.587-   4 2.82  16 2.82  15 2.82  18 2.84  25 2.84  29 2.84  20 2.85  27 2.85
                            31 2.85
   9  0.250  0.999  0.413-   1 2.82  13 2.82   2 2.82  17 2.84  22 2.84  25 2.84  30 2.84  19 2.85
                            27 2.85  24 2.85  32 2.85
  10  0.750  0.999  0.587-   2 2.82  14 2.82  13 2.82  18 2.84  21 2.84  29 2.84  20 2.85  23 2.85
                            31 2.85
  11  0.250  0.501  0.413-   3 2.82  15 2.82   4 2.82  17 2.84  22 2.84  25 2.84  30 2.84  19 2.85
                            27 2.85  24 2.85  32 2.85
  12  0.750  0.501  0.587-   4 2.82  16 2.82  15 2.82  18 2.84  21 2.84  29 2.84  20 2.85  23 2.85
                            31 2.85
  13  0.000  0.999  0.500-   5 2.82   9 2.82   6 2.82  10 2.82  17 2.84  25 2.84  21 2.84  29 2.84
                            19 2.85  23 2.85  27 2.85  31 2.85
  14  0.500  0.999  0.674-   6 2.82  10 2.82  18 2.84  20 2.85
  15  0.000  0.501  0.500-   7 2.82  11 2.82   8 2.82  12 2.82  17 2.84  21 2.84  25 2.84  29 2.84
                            19 2.85  27 2.85  23 2.85  31 2.85
  16  0.500  0.501  0.674-   8 2.82  12 2.82  18 2.84  20 2.85
  17  0.000  0.750  0.413-  21 2.82  22 2.82  25 2.82  26 2.82   5 2.84  11 2.84   9 2.84   7 2.84
                             1 2.84   3 2.84  13 2.84  15 2.84
  18  0.500  0.750  0.587-  21 2.82  25 2.82   2 2.84   4 2.84   6 2.84  12 2.84  10 2.84   8 2.84
                            14 2.84  16 2.84
  19  0.000  0.250  0.413-  23 2.82  24 2.82  27 2.82  28 2.82   7 2.85   9 2.85   5 2.85  11 2.85
                             1 2.85   3 2.85  13 2.85  15 2.85
  20  0.500  0.250  0.587-  23 2.82  27 2.82   2 2.85   4 2.85   8 2.85  10 2.85   6 2.85  12 2.85
                            14 2.85  16 2.85
  21  0.750  0.750  0.500-  17 2.82  18 2.82  29 2.82  30 2.82   5 2.84   7 2.84  10 2.84  12 2.84
                             2 2.84  15 2.84  13 2.84   4 2.84
  22  0.250  0.750  0.326-  17 2.82  30 2.82   9 2.84  11 2.84   1 2.84   3 2.84
  23  0.750  0.250  0.500-  19 2.82  20 2.82  31 2.82  32 2.82   5 2.85   7 2.85  10 2.85  12 2.85
                             4 2.85  13 2.85   2 2.85  15 2.85
  24  0.250  0.250  0.326-  19 2.82  32 2.82   9 2.85  11 2.85   3 2.85   1 2.85
  25  0.250  0.750  0.500-  17 2.82  18 2.82  29 2.82  30 2.82   6 2.84   8 2.84   9 2.84  11 2.84
                             4 2.84  13 2.84   2 2.84  15 2.84
  26  0.750  0.750  0.326-  17 2.82  30 2.82   5 2.84   7 2.84   3 2.84   1 2.84
  27  0.250  0.250  0.500-  19 2.82  20 2.82  31 2.82  32 2.82   6 2.85   8 2.85   9 2.85  11 2.85
                             2 2.85  15 2.85  13 2.85   4 2.85
  28  0.750  0.250  0.326-  19 2.82  32 2.82   5 2.85   7 2.85   1 2.85   3 2.85
  29  0.000  0.750  0.587-  21 2.82  25 2.82  13 2.84  15 2.84   8 2.84  10 2.84   6 2.84  12 2.84

  30  0.500  0.750  0.413-  21 2.82  22 2.82  25 2.82  26 2.82   7 2.84   9 2.84   5 2.84  11 2.84
                             2 2.84   4 2.84
  31  0.000  0.250  0.587-  23 2.82  27 2.82  13 2.85  15 2.85   6 2.85  12 2.85  10 2.85   8 2.85

  32  0.500  0.250  0.413-  23 2.82  24 2.82  27 2.82  28 2.82   5 2.85  11 2.85   9 2.85   7 2.85
                             2 2.85   4 2.85

  LATTYP: Found a simple orthorhombic cell.
 ALAT       =     7.9836401110
 B/A-ratio  =     1.0158251561
 C/A-ratio  =     2.8786450504

  Lattice vectors:

 A1 = (   7.9836401110,   0.0000000000,   0.0000000000)
 A2 = (   0.0000000000,   8.1099824619,   0.0000000000)
 A3 = (   0.0000000000,   0.0000000000,  22.9820660895)

Analysis of symmetry for initial positions (statically):
 Subroutine PRICEL returns:
 Original cell was already a primitive cell.

 Routine SETGRP: Setting up the symmetry group for a
 simple orthorhombic supercell.

 Subroutine GETGRP returns: Found  4 space group operations
 (whereof  2 operations were pure point group operations)
 out of a pool of  8 trial point group operations.

The static configuration has the point symmetry C_1h.
 The point group associated with its full space group is C_2v.

Analysis of symmetry for dynamics (positions and initial velocities):
 Subroutine PRICEL returns:
 Original cell was already a primitive cell.

 Routine SETGRP: Setting up the symmetry group for a
 simple orthorhombic supercell.

 Subroutine GETGRP returns: Found  4 space group operations
 (whereof  2 operations were pure point group operations)
 out of a pool of  8 trial point group operations.

The dynamic configuration has the point symmetry C_1h.
 The point group associated with its full space group is C_2v.

 Subroutine INISYM returns: Found  4 space group operations
 (whereof  2 operations are pure point group operations),
 and found     1 'primitive' translations

                                     Primitive cell

  volume of cell :    1488.0240

  direct lattice vectors                    reciprocal lattice vectors
     7.983640111  0.000000000  0.000000000     0.125256147 -0.000000000 -0.000000000
     0.000000000  8.109982462  0.000000000     0.000000000  0.123304829 -0.000000000
     0.000000000  0.000000000 22.982066090     0.000000000  0.000000000  0.043512189

  length of vectors
     7.983640111  8.109982462 22.982066090     0.125256147  0.123304829  0.043512189

  position of ions in fractional coordinates (direct lattice)
     1.000000000  0.999382808  0.326409906
     0.500000000  0.999382808  0.500102734
     1.000000000  0.500617192  0.326409906
     0.500000000  0.500617192  0.500102734
     0.750197156  0.999382808  0.413187830
     0.250197156  0.999382808  0.586880659
     0.750197156  0.500617192  0.413187830
     0.250197156  0.500617192  0.586880659
     0.249802844  0.999382808  0.413187830
     0.749802844  0.999382808  0.586880659
     0.249802844  0.500617192  0.413187830
     0.749802844  0.500617192  0.586880659
     1.000000000  0.999382808  0.499965755
     0.500000000  0.999382808  0.673658584
     1.000000000  0.500617192  0.499965755
     0.500000000  0.500617192  0.673658584
     1.000000000  0.750000000  0.413187830
     0.500000000  0.750000000  0.586880659
     1.000000000  0.250000000  0.413187830
     0.500000000  0.250000000  0.586880659
     0.750000000  0.750000000  0.500034245
     0.250000000  0.750000000  0.326341416
     0.750000000  0.250000000  0.500034245
     0.250000000  0.250000000  0.326341416
     0.250000000  0.750000000  0.500034245
     0.750000000  0.750000000  0.326341416
     0.250000000  0.250000000  0.500034245
     0.750000000  0.250000000  0.326341416
     1.000000000  0.750000000  0.586880659
     0.500000000  0.750000000  0.413187830
     1.000000000  0.250000000  0.586880659
     0.500000000  0.250000000  0.413187830

  ion indices of the primitive-cell ions
   primitive index   ion index
                 1           1
                 2           2
                 3           3
                 4           4
                 5           5
                 6           6
                 7           7
                 8           8
                 9           9
                10          10
                11          11
                12          12
                13          13
                14          14
                15          15
                16          16
                17          17
                18          18
                19          19
                20          20
                21          21
                22          22
                23          23
                24          24
                25          25
                26          26
                27          27
                28          28
                29          29
                30          30
                31          31
                32          32

 KPOINTS: K-Spacing Value to Generate K-Mesh: 0.03

Automatic generation of k-mesh.
[...]
  8.3233  5.5123  3.0815  3.0815  2.2132  2.2132  1.9490  1.5527  0.1390  0.1450
  0.2067  0.2312  0.2312  1.1721  1.1721  0.4368  0.9668  0.9668  0.9854  0.5504
  0.6379  0.7749  0.7749  0.8055

[...]

--------------------------------------- Iteration      1(  30)  ---------------------------------------

 eigenvalue-minimisations  :  3264
 total energy-change (2. order) :-0.5517777E-05  (-0.2717793E-07)
 number of electron     260.0000186 magnetization
 augmentation part       75.7252661 magnetization

 Free energy of the ion-electron system (eV)
  alpha Z        PSCENC =       265.18332506
  Ewald energy   TEWEN  =     55857.92080792
  -Hartree energ DENC   =    -82184.81950811
  -exchange      EXHF   =         0.00000000
  -V(xc)+E(xc)   XCENC  =       688.02059997
  PAW double counting   =     28399.01278761   -28249.86392997
  entropy T*S    EENTRO =        -0.00803688
  eigenvalues    EBANDS =     -5409.66365659
  atomic energy  EATOM  =     30456.55260990
  Solvation  Ediel_sol  =         0.00000000
  free energy    TOTEN  =      -177.66500110 eV

  energy without entropy =     -177.65696422  energy(sigma->0) =     -177.66232214

 average (electrostatic) potential at core
  the test charge radii are     1.0397  1.0314  1.0406
  (the norm of the test charge is              1.0000)
       1 -80.3883       2 -79.9961       3 -80.3883       4 -79.9961       5 -80.2276
       6 -80.3001       7 -80.2276       8 -80.3001       9 -80.2276      10 -80.3001
      11 -80.2276      12 -80.3001      13 -80.1502      14 -80.8021      15 -80.1502
      16 -80.8021      17 -69.3532      18 -69.1977      19 -79.0916      20 -79.0140
      21 -79.1889      22 -79.5214      23 -79.1180      24 -79.4914      25 -79.1889
      26 -79.5214      27 -79.1180      28 -79.4914      29 -79.1474      30 -79.0406
      31 -79.1687      32 -79.0503

 E-fermi :   0.6000     XC(G=0):  -4.9835     alpha+bet : -5.6247

 val. band max:        0.5963709042   @ k =   0.0000   0.0000   0.0000
 cond. band min:       0.6019299447   @ k =   0.5000   0.2500   0.0000
 fundamental gap:      0.0055590404
 Fermi energy:         0.6000325622

 k-point     1 :       0.0000    0.0000    0.0000
  band No.  band energies     occupation
      1     -56.7725      2.00000
      2     -56.7721      2.00000
      3     -56.3335      2.00000
      4     -56.3331      2.00000
      5     -56.2467      2.00000
      6     -56.2462      2.00000
      7     -56.2426      2.00000
      8     -56.2421      2.00000
      9     -56.1732      2.00000
     10     -56.1726      2.00000
     11     -56.1683      2.00000
     12     -56.1678      2.00000
     13     -56.0927      2.00000
     14     -56.0922      2.00000
     15     -55.9463      2.00000
     16     -55.9458      2.00000
     17     -33.1378      2.00000
     18     -33.1284      2.00000
     19     -33.0632      2.00000
     20     -33.0620      2.00000
     21     -32.9593      2.00000
     22     -32.9585      2.00000
     23     -32.8401      2.00000
     24     -32.8389      2.00000
     25     -32.6325      2.00000
     26     -32.6310      2.00000
     27     -32.6233      2.00000
     28     -32.6217      2.00000
     29     -32.5894      2.00000
     30     -32.5805      2.00000
     31     -32.5761      2.00000
     32     -32.5734      2.00000
     33     -32.5691      2.00000
     34     -32.5603      2.00000
     35     -32.5510      2.00000
     36     -32.5506      2.00000
     37     -32.5493      2.00000
     38     -32.5484      2.00000
     39     -32.5288      2.00000
     40     -32.5276      2.00000
     41     -32.5162      2.00000
     42     -32.5150      2.00000
     43     -32.4980      2.00000
     44     -32.4964      2.00000
     45     -32.4857      2.00000
     46     -32.4734      2.00000
     47     -32.4006      2.00000
     48     -32.3991      2.00000
     49     -32.3925      2.00000
     50     -32.3915      2.00000
     51     -32.3546      2.00000
     52     -32.3426      2.00000
     53     -32.3421      2.00000
     54     -32.3395      2.00000
     55     -32.2989      2.00000
     56     -32.2978      2.00000
     57     -32.2044      2.00000
     58     -32.2037      2.00000
     59     -32.1812      2.00000
     60     -32.1803      2.00000
[...]
    178       2.5898     -0.00000
    179       2.6685      0.00000
    180       2.6687      0.00000
    181       2.6713      0.00000
    182       2.7346      0.00000
    183       3.0371      0.00000
    184       3.2473      0.00000
    185       3.3437      0.00000
    186       3.3580      0.00000
    187       3.3788      0.00000
    188       3.5136      0.00000
    189       3.5814      0.00000
    190       3.6941      0.00000
    191       3.9012      0.00000
    192       3.9847      0.00000

[...]

 k-point     9 :       0.5000    0.5000    0.0000
  band No.  band energies     occupation
      1     -56.7723      2.00000
      2     -56.7723      2.00000
      3     -56.3333      2.00000
      4     -56.3333      2.00000
      5     -56.2454      2.00000
      6     -56.2454      2.00000
      7     -56.2433      2.00000
      8     -56.2433      2.00000
      9     -56.1713      2.00000
     10     -56.1713      2.00000
     11     -56.1700      2.00000
     12     -56.1700      2.00000
     13     -56.0921      2.00000
     14     -56.0921      2.00000
     15     -55.9461      2.00000
     16     -55.9461      2.00000
     17     -33.1333      2.00000
     18     -33.1329      2.00000
     19     -33.0625      2.00000
     20     -33.0625      2.00000
     21     -32.9588      2.00000
     22     -32.9588      2.00000
     23     -32.8394      2.00000
     24     -32.8393      2.00000
     25     -32.6267      2.00000
     26     -32.6265      2.00000
     27     -32.6255      2.00000
     28     -32.6255      2.00000
     29     -32.5806      2.00000
     30     -32.5804      2.00000
     31     -32.5769      2.00000
     32     -32.5766      2.00000
     33     -32.5668      2.00000
     34     -32.5664      2.00000
     35     -32.5545      2.00000
     36     -32.5543      2.00000
     37     -32.5455      2.00000
     38     -32.5452      2.00000
     39     -32.5245      2.00000
     40     -32.5242      2.00000
     41     -32.5213      2.00000
     42     -32.5211      2.00000
     43     -32.4978      2.00000
     44     -32.4978      2.00000
     45     -32.4786      2.00000
     46     -32.4782      2.00000
     47     -32.4028      2.00000
     48     -32.4027      2.00000
     49     -32.3937      2.00000
     50     -32.3936      2.00000
     51     -32.3540      2.00000
     52     -32.3539      2.00000
     53     -32.3482      2.00000
     54     -32.3478      2.00000
     55     -32.2804      2.00000
     56     -32.2803      2.00000
     57     -32.2059      2.00000
     58     -32.2058      2.00000
     59     -32.1758      2.00000
     60     -32.1757      2.00000
[...]
    178       2.9218      0.00000
    179       2.9825      0.00000
    180       3.0100      0.00000
    181       3.0221      0.00000
    182       3.0290      0.00000
    183       3.0536      0.00000
    184       3.1389      0.00000
    185       3.1565      0.00000
    186       3.1870      0.00000
    187       3.5067      0.00000
    188       3.5141      0.00000
    189       3.5153      0.00000
    190       3.5592      0.00000
    191       3.7735      0.00000
    192       3.8175      0.00000

 soft charge-density along one line, spin component           1
         0         1         2         3         4         5         6         7         8         9
 total charge-density along one line

------------------------ aborting loop because EDIFF is reached ----------------------------------------

  FORCE on cell =-STRESS in cart. coord.  units (eV):
  Direction    XX          YY          ZZ          XY          YZ          ZX
  Alpha Z   265.18333   265.18333   265.18333
  Ewald   66906.64759 67316.52647-78365.30462    -0.00000    -0.00000    -0.00000
  Hartree 74492.28637 74825.71936-67133.24685    -0.00000    -0.00000    -0.00000
  E(xc)   -1283.46748 -1285.93278 -1285.08666     0.00000     0.00000    -0.00000
  Local  ************************142413.24669    -0.00000     0.00000     0.00000
  n-local  -292.22349  -188.91618  -282.04846     0.06053     0.00000    -0.00000
  augment  1234.77295  1196.44241  1223.58722    -0.00000     0.00000     0.00000
  Kinetic  3177.25881  3054.53246  3154.60470     0.22875    -0.00000     0.00000
  Fock        0.00000     0.00000     0.00000     0.00000     0.00000     0.00000
  Total     -18.25544   -20.85040    -9.06466    -0.00000    -0.00000    -0.00000
  in kB     -19.65590   -22.44993    -9.76005    -0.00000    -0.00000    -0.00000

 VOLUME and BASIS-vectors are now :
  energy-cutoff  :      520.00
  volume of cell :     1488.02
      direct lattice vectors                 reciprocal lattice vectors
     7.983640111  0.000000000  0.000000000     0.125256147 -0.000000000 -0.000000000
     0.000000000  8.109982462  0.000000000     0.000000000  0.123304829 -0.000000000
     0.000000000  0.000000000 22.982066090     0.000000000  0.000000000  0.043512189

  length of vectors
     7.983640111  8.109982462 22.982066090     0.125256147  0.123304829  0.043512189

 FORCES acting on ions
    electron-ion (+dipol)            ewald-force                    non-local-force                 convergence-correction
   0.214E-13 -.130E+03 0.232E+04   -.406E-13 0.130E+03 -.232E+04   -.114E-15 -.207E+00 -.467E+01   -.332E-12 0.238E-04 0.767E-03
   0.936E-12 -.156E+03 0.446E+02   0.396E-14 0.156E+03 -.457E+02   0.122E-16 -.214E+00 0.118E+01   -.569E-13 -.147E-04 -.406E-03
   0.636E-14 0.130E+03 0.232E+04   -.122E-13 -.130E+03 -.232E+04   -.888E-16 0.207E+00 -.467E+01   -.237E-12 -.238E-04 0.767E-03
   0.935E-12 0.156E+03 0.446E+02   -.142E-13 -.156E+03 -.457E+02   0.390E-16 0.214E+00 0.118E+01   -.112E-13 0.147E-04 -.406E-03
   0.283E+03 -.146E+03 0.128E+04   -.283E+03 0.146E+03 -.128E+04   -.702E+00 -.228E+00 0.301E+00   -.154E-03 -.122E-04 0.119E-02
   0.283E+03 -.145E+03 -.154E+04   -.283E+03 0.146E+03 0.153E+04   -.746E+00 -.194E+00 0.230E+01   -.799E-03 -.134E-04 -.239E-02
   0.283E+03 0.146E+03 0.128E+04   -.283E+03 -.146E+03 -.128E+04   -.702E+00 0.228E+00 0.301E+00   -.154E-03 0.122E-04 0.119E-02
   0.283E+03 0.145E+03 -.154E+04   -.283E+03 -.146E+03 0.153E+04   -.746E+00 0.194E+00 0.230E+01   -.799E-03 0.134E-04 -.239E-02
   -.283E+03 -.146E+03 0.128E+04   0.283E+03 0.146E+03 -.128E+04   0.702E+00 -.228E+00 0.301E+00   0.154E-03 -.122E-04 0.119E-02
   -.283E+03 -.145E+03 -.154E+04   0.283E+03 0.146E+03 0.153E+04   0.746E+00 -.194E+00 0.230E+01   0.799E-03 -.134E-04 -.239E-02
   -.283E+03 0.146E+03 0.128E+04   0.283E+03 -.146E+03 -.128E+04   0.702E+00 0.228E+00 0.301E+00   0.154E-03 0.122E-04 0.119E-02
   -.283E+03 0.145E+03 -.154E+04   0.283E+03 -.146E+03 0.153E+04   0.746E+00 0.194E+00 0.230E+01   0.799E-03 0.134E-04 -.239E-02
   0.250E-13 -.156E+03 -.304E+03   0.381E-13 0.156E+03 0.305E+03   -.434E-16 -.222E+00 -.136E+01   -.220E-13 -.289E-04 -.345E-04
   0.105E-11 -.129E+03 -.239E+04   0.445E-13 0.130E+03 0.238E+04   0.125E-15 -.275E+00 0.652E+01   0.446E-14 -.155E-04 -.120E-02
   -.172E-13 0.156E+03 -.304E+03   0.131E-12 -.156E+03 0.305E+03   -.157E-16 0.222E+00 -.136E+01   0.472E-13 0.289E-04 -.345E-04
   0.105E-11 0.129E+03 -.239E+04   0.372E-13 -.130E+03 0.238E+04   0.159E-15 0.275E+00 0.652E+01   0.107E-12 0.155E-04 -.120E-02
   0.195E-14 0.218E-11 0.123E+04   0.151E-12 -.262E-13 -.123E+04   0.184E-16 0.184E-16 0.847E+00   -.172E-12 -.656E-13 0.126E-02
   0.170E-11 0.652E-11 -.150E+04   0.955E-13 -.539E-13 0.151E+04   -.646E-16 -.646E-16 -.297E+01   -.139E-13 0.352E-13 -.323E-02
   0.140E-13 -.200E-12 0.280E+03   0.833E-14 0.167E-13 -.280E+03   -.281E-17 -.281E-17 -.129E+00   -.111E-13 0.833E-14 0.255E-03
   -.209E-13 0.185E-12 -.343E+03   -.907E-15 0.220E-13 0.343E+03   0.624E-17 0.624E-17 0.287E+00   -.110E-13 -.124E-13 -.706E-03
   -.423E-02 0.127E-12 -.331E+02   -.764E-13 -.238E-14 0.333E+02   -.335E-02 0.000E+00 -.505E-01   -.158E-04 0.119E-13 -.479E-04
   -.107E+03 0.516E-12 0.582E+03   0.104E+03 -.247E-13 -.579E+03   0.284E+01 -.468E-16 -.218E+01   0.334E-04 -.267E-13 0.205E-03
   0.263E-01 -.455E-12 -.331E+02   -.690E-13 0.786E-14 0.333E+02   -.199E-01 0.000E+00 -.578E-01   -.166E-04 -.106E-13 -.510E-04
   -.823E+02 -.146E-12 0.553E+03   0.789E+02 -.177E-13 -.550E+03   0.294E+01 -.520E-16 -.237E+01   0.317E-04 0.198E-13 0.201E-03
   0.423E-02 0.377E-12 -.331E+02   0.240E-13 -.370E-14 0.333E+02   0.335E-02 0.000E+00 -.505E-01   0.158E-04 0.900E-14 -.479E-04
   0.107E+03 0.119E-11 0.582E+03   -.104E+03 0.213E-13 -.579E+03   -.284E+01 -.468E-16 -.218E+01   -.334E-04 -.117E-13 0.205E-03
   -.263E-01 -.474E-12 -.331E+02   0.283E-13 0.180E-13 0.333E+02   0.199E-01 0.000E+00 -.578E-01   0.166E-04 -.817E-14 -.510E-04
   0.823E+02 0.293E-11 0.553E+03   -.789E+02 0.336E-13 -.550E+03   -.294E+01 -.520E-16 -.237E+01   -.317E-04 0.361E-14 0.201E-03
   0.288E-13 0.230E-12 -.426E+03   -.100E-13 0.579E-15 0.424E+03   0.432E-16 0.432E-16 0.199E+01   0.121E-13 0.256E-13 -.394E-03
   -.432E-14 0.973E-12 0.362E+03   -.520E-14 -.311E-14 -.360E+03   -.337E-16 -.337E-16 -.155E+01   0.180E-13 -.101E-13 0.260E-03
   0.265E-13 0.350E-14 -.413E+03   -.248E-13 0.131E-14 0.411E+03   0.432E-16 0.432E-16 0.199E+01   0.150E-13 -.168E-13 -.390E-03
   -.213E-13 0.101E-11 0.349E+03   -.482E-13 -.450E-14 -.347E+03   -.330E-16 -.330E-16 -.152E+01   0.982E-14 0.259E-14 0.257E-03
   0.118E-10 0.397E-10 -.335E+01   0.396E-13 -.157E-12 -.114E-12   0.464E-15 0.168E-15 0.336E+01   -.851E-12 -.219E-12 -.864E-02

 POSITION                                       TOTAL-FORCE (eV/Angst)
      0.00000      8.10498      7.50157         0.000000      0.020096      0.137014
      3.99182      8.10498     11.49339         0.000000      0.007161      0.060740
      0.00000      4.06000      7.50157         0.000000     -0.020096      0.137014
      3.99182      4.06000     11.49339        -0.000000     -0.007161      0.060740
      5.98930      8.10498      9.49591        -0.394708     -0.020273     -0.475074
      1.99748      8.10498     13.48773        -0.015423     -0.020416      0.382680
      5.98930      4.06000      9.49591        -0.394708      0.020273     -0.475074
      1.99748      4.06000     13.48773        -0.015423      0.020416      0.382680
      1.99434      8.10498      9.49591         0.394708     -0.020273     -0.475074
      5.98616      8.10498     13.48773         0.015423     -0.020416      0.382680
      1.99434      4.06000      9.49591         0.394708      0.020273     -0.475074
      5.98616      4.06000     13.48773         0.015423      0.020416      0.382680
      0.00000      8.10498     11.49025         0.000000      0.006254      0.215313
      3.99182      8.10498     15.48207        -0.000000     -0.074476     -1.515048
      0.00000      4.06000     11.49025         0.000000     -0.006254      0.215313
      3.99182      4.06000     15.48207        -0.000000      0.074476     -1.515048
      0.00000      6.08249      9.49591        -0.000000     -0.000000     -0.060626
      3.99182      6.08249     13.48773         0.000000      0.000000      0.617645
      0.00000      2.02750      9.49591        -0.000000     -0.000000     -0.201021
      3.99182      2.02750     13.48773         0.000000      0.000000      0.505583
      5.98773      6.08249     11.49182        -0.007603      0.000000      0.139885
      1.99591      6.08249      7.50000        -0.396892      0.000000      0.345447
      5.98773      2.02750     11.49182         0.006332      0.000000      0.137343
      1.99591      2.02750      7.50000        -0.440568      0.000000      0.402915
      1.99591      6.08249     11.49182         0.007603      0.000000      0.139885
      5.98773      6.08249      7.50000         0.396892      0.000000      0.345447
      1.99591      2.02750     11.49182        -0.006332      0.000000      0.137343
      5.98773      2.02750      7.50000         0.440568      0.000000      0.402915
      0.00000      6.08249     13.48773        -0.000000      0.000000      0.016795
      3.99182      6.08249      9.49591        -0.000000     -0.000000     -0.186001
      0.00000      2.02750     13.48773        -0.000000     -0.000000     -0.023259
      3.99182      2.02750      9.49591        -0.000000     -0.000000     -0.146759
    total drift:                                0.000000      0.000000     -0.000156

  FREE ENERGIE OF THE ION-ELECTRON SYSTEM (eV)
  free  energy   TOTEN  =      -177.66500110 eV

  energy  without entropy=     -177.65696422  energy(sigma->0) =     -177.66232214

 writing wavefunctions