 vasp.6.5.0 16Dec24 (build Apr 17 2025 17:55:45) complex

 executed on             LinuxIFC date 2025.07.14  12:51:23

 INCAR:
   ISTART = 0
   ICHARG = 2
   PREC = N
   LREAL = .FALSE.
   ENCUT = 520
   ALGO = N
   NELM = 500
   EDIFF = 1E-05
   IBRION = -1
   ISIF = 3
   NSW = 0
   EDIFFG = -0.01
   ISMEAR = 1
   SIGMA = 0.1
   LVHAR = .TRUE.
   LVTOT = .TRUE.

 POTCAR:    PAW_PBE Ti_sv 26Sep2005
 POTCAR:    PAW_PBE Al 04Jan2001
|           W    W    AA    RRRRR   N    N  II  N    N   GGGG   !!!           |
|           W    W   A  A   R    R  NN   N  II  NN   N  G    G  !!!           |
|           W    W  A    A  R    R  N N  N  II  N N  N  G       !!!           |
|           W WW W  AAAAAA  RRRRR   N  N N  II  N  N N  G  GGG   !            |
|           WW  WW  A    A  R   R   N   NN  II  N   NN  G    G                |
|           W    W  A    A  R    R  N    N  II  N    N   GGGG   !!!           |
|     For optimal performance we recommend to set                             |
|       NCORE = 2 up to number-of-cores-per-socket                            |
|     This setting can greatly improve the performance of VASP for DFT.       |
|     The default, NCORE=1 might be grossly inefficient on modern             |
|     multi-core architectures or massively parallel machines. Do your        |
|     Unfortunately you need to use the default for GW and RPA                |
|     calculations (for HF NCORE is supported but not extensively tested      |
|     yet).                                                                   |

   TITEL  = PAW_PBE Ti_sv 26Sep2005
   POMASS =   47.880; ZVAL   =   12.000    mass and valenz
   ENMAX  =  274.610; ENMIN  =  205.957 eV

   TITEL  = PAW_PBE Al 04Jan2001
   POMASS =   26.981; ZVAL   =    3.000    mass and valenz
   ENMAX  =  240.300; ENMIN  =  180.225 eV

  PAW_PBE Ti_sv 26Sep2005               :
  PAW_PBE Al 04Jan2001                  :

 POSCAR: 0000065828-primitive-cell\(2\0\2)
  positions in direct lattice

 exchange-correlation table for PE
   RHO(1)=    0.500       N(1)  =     2000
   RHO(2)=  100.500       N(2)  =     4000

 ion  position               nearest neighbor table
   1  0.675  0.000  0.404-   2 2.82   3 2.85   3 2.85   3 2.85   3 2.85   4 2.85   4 2.85
   2  0.000  0.000  0.538-   1 2.82   4 2.85   4 2.85   4 2.85   4 2.85   3 2.85   3 2.85
   3  0.175  0.500  0.404-   4 2.82   1 2.85   1 2.85   1 2.85   1 2.85   2 2.85   2 2.85
   4  0.500  0.500  0.538-   3 2.82   2 2.85   2 2.85   2 2.85   2 2.85   1 2.85   1 2.85

  LATTYP: Found a simple orthorhombic cell.
 ALAT       =     2.8238000870
 B/A-ratio  =     1.7543380224
 C/A-ratio  =     6.1336143674

  Lattice vectors:

 A1 = (   0.0000000000,  -2.8238000870,   0.0000000000)
 A2 = (   4.9538998604,   0.0000000000,   0.0000000000)
 A3 = (   0.0000000000,   0.0000000000,  17.3201007843)

Analysis of symmetry for initial positions (statically):
 Subroutine PRICEL returns:
 Original cell was already a primitive cell.

 Routine SETGRP: Setting up the symmetry group for a
 simple orthorhombic supercell.

 Subroutine GETGRP returns: Found  4 space group operations
 (whereof  2 operations were pure point group operations)
 out of a pool of  8 trial point group operations.

The static configuration has the point symmetry C_1h.
 The point group associated with its full space group is C_2h.

Analysis of symmetry for dynamics (positions and initial velocities):
 Subroutine PRICEL returns:
 Original cell was already a primitive cell.

 Routine SETGRP: Setting up the symmetry group for a
 simple orthorhombic supercell.

 Subroutine GETGRP returns: Found  4 space group operations
 (whereof  2 operations were pure point group operations)
 out of a pool of  8 trial point group operations.

The dynamic configuration has the point symmetry C_1h.
 The point group associated with its full space group is C_2h.

 Subroutine INISYM returns: Found  4 space group operations
 (whereof  2 operations are pure point group operations),
 and found     1 'primitive' translations

                                     Primitive cell

  volume of cell :     242.2878

  direct lattice vectors                    reciprocal lattice vectors
     4.953899860  0.000000000  0.000000000     0.201861166  0.000000000  0.000000000
     0.000000000  2.823800087  0.000000000     0.000000000  0.354132718  0.000000000
     0.000000000  0.000000000 17.320100784     0.000000000  0.000000000  0.057736385

  length of vectors
     4.953899860  2.823800087 17.320100784     0.201861166  0.354132718  0.057736385

  position of ions in fractional coordinates (direct lattice)
     0.675080001  0.000000000  0.404150009
     0.000000000  0.000000000  0.538110018
     0.175080001  0.500000000  0.404150009
     0.500000000  0.500000000  0.538110018

  ion indices of the primitive-cell ions
   primitive index   ion index
                 1           1
                 2           2
                 3           3
                 4           4

 KPOINTS: K-Spacing Value to Generate K-Mesh: 0.04

Automatic generation of k-mesh.
 Grid dimensions read from file:
 generate k-points for:    5    9    1

 Generating k-lattice:

  Cartesian coordinates                     Fractional coordinates (reciprocal lattice)
     0.040372233  0.000000000  0.000000000     0.200000000  0.000000000  0.000000000
     0.000000000  0.039348080  0.000000000     0.000000000  0.111111111  0.000000000
     0.000000000  0.000000000  0.057736385     0.000000000  0.000000000  1.000000000

  Length of vectors
     0.040372233  0.039348080  0.057736385

  Shift w.r.t. Gamma in fractional coordinates (k-lattice)
     0.000000000  0.000000000  0.000000000

 Subroutine IBZKPT returns following result:

 Found     15 irreducible k-points:

 Following reciprocal coordinates:
            Coordinates               Weight
  0.000000  0.000000  0.000000      1.000000
  0.200000  0.000000  0.000000      2.000000
  0.400000  0.000000  0.000000      2.000000
  0.000000  0.111111  0.000000      2.000000
  0.200000  0.111111  0.000000      4.000000
  0.400000  0.111111  0.000000      4.000000
  0.000000  0.222222  0.000000      2.000000
  0.200000  0.222222  0.000000      4.000000
  0.400000  0.222222  0.000000      4.000000
  0.000000  0.333333  0.000000      2.000000
  0.200000  0.333333  0.000000      4.000000
  0.400000  0.333333  0.000000      4.000000
  0.000000  0.444444  0.000000      2.000000
  0.200000  0.444444  0.000000      4.000000
  0.400000  0.444444  0.000000      4.000000

 Following cartesian coordinates:
            Coordinates               Weight
  0.000000  0.000000  0.000000      1.000000
  0.040372  0.000000  0.000000      2.000000
  0.080744  0.000000  0.000000      2.000000
  0.000000  0.039348  0.000000      2.000000
  0.040372  0.039348  0.000000      4.000000
  0.080744  0.039348  0.000000      4.000000
  0.000000  0.078696  0.000000      2.000000
  0.040372  0.078696  0.000000      4.000000
  0.080744  0.078696  0.000000      4.000000
  0.000000  0.118044  0.000000      2.000000
  0.040372  0.118044  0.000000      4.000000
  0.080744  0.118044  0.000000      4.000000
  0.000000  0.157392  0.000000      2.000000
  0.040372  0.157392  0.000000      4.000000
  0.080744  0.157392  0.000000      4.000000

 SYSTEM =  unknown system
 POSCAR =  0000065828-primitive-cell\(2\0\2)

 Startparameter for this run:
   NWRITE =      2    write-flag & timer
   PREC   = n         normal or accurate (medium, high low for compatibility)
   ISTART =      0    job   : 0-new  1-cont  2-samecut
   ICHARG =      2    charge: 1-file 2-atom 10-const
   ISPIN  =      1    spin polarized calculation?
   LNONCOLLINEAR =      F non collinear calculations
   LSORBIT =      F    spin-orbit coupling
   INIWAV =      1    electr: 0-lowe 1-rand  2-diag
   LASPH  =      F    aspherical Exc in radial PAW
 Electronic Relaxation 1
   ENCUT  =  520.0 eV  38.22 Ry    6.18 a.u.   9.21  5.25 32.20*2*pi/ulx,y,z
   ENINI  =  520.0     initial cutoff
   ENAUG  =  482.8 eV  augmentation charge cutoff
   NELM   =    500;   NELMIN=  2; NELMDL= -5     # of ELM steps
   EDIFF  = 0.1E-04   stopping-criterion for ELM
   LREAL  =      F    real-space projection
   NLSPLINE    = F    spline interpolate recip. space projectors
   LCOMPAT=      F    compatible to vasp.4.4
   GGA_COMPAT  = T    GGA compatible to vasp.4.4-vasp.4.6
   LMAXPAW     = -100 max onsite density
   LMAXMIX     =    2 max onsite mixed and CHGCAR
   VOSKOWN=      0    Vosko Wilk Nusair interpolation
   ROPT   =    0.00000   0.00000
 Ionic relaxation
   EDIFFG = -.1E-01   stopping-criterion for IOM
   NSW    =      0    number of steps for IOM
   NBLOCK =      1;   KBLOCK =      1    inner block; outer block
   IBRION =     -1    ionic relax: 0-MD 1-quasi-New 2-CG
   NFREE  =      0    steps in history (QN), initial steepest desc. (CG)
   ISIF   =      3    stress and relaxation
   IWAVPR =     10    prediction:  0-non 1-charg 2-wave 3-comb
   ISYM   =      2    0-nonsym 1-usesym 2-fastsym
   LCORR  =      T    Harris-Foulkes like correction to forces

   POTIM  = 0.5000    time-step for ionic-motion
   TEIN   =    0.0    initial temperature
   TEBEG  =    0.0;   TEEND  =   0.0 temperature during run
   SMASS  =  -3.00    Nose mass-parameter (am)
   estimated Nose-frequenzy (Omega)   =  0.10E-29 period in steps = 0.13E+47 mass=  -0.561E-27a.u.
   SCALEE = 1.0000    scale energy and forces
   NPACO  =    256;   APACO  = 10.0  distance and # of slots for P.C.
   PSTRESS=    0.0 pullay stress

  Mass of Ions in am
   POMASS =  47.88 26.98
  Ionic Valenz
   ZVAL   =  12.00  3.00
  Atomic Wigner-Seitz radii
  virtual crystal weights
   VCA    =   1.00  1.00
   NELECT =      30.0000    total number of electrons
   NUPDOWN=      -1.0000    fix difference up-down

 DOS related values:
   EMIN   =  10.00;   EMAX   =-10.00  energy-range for DOS
   EFERMI =   0.00;   METHOD = LEGACY
   ISMEAR =     1;   SIGMA  =   0.10  broadening in eV -4-tet -1-fermi 0-gaus
   EFERMI_NEDOS =   21; number of points for ismear=-14 and -15

 Electronic relaxation 2 (details)
   IALGO  =     38    algorithm
   LDIAG  =      T    sub-space diagonalisation (order eigenvalues)
   LSUBROT=      F    optimize rotation matrix (better conditioning)
   TURBO    =      0    0=normal 1=particle mesh
   IRESTART =      0    0=no restart 2=restart with 2 vectors
   NREBOOT  =      0    no. of reboots
   NMIN     =      0    reboot dimension
   EREF     =   0.00    reference energy to select bands
   IMIX   =      4    mixing-type and parameters
     AMIX     =   0.40;   BMIX     =  1.00
     AMIX_MAG =   1.60;   BMIX_MAG =  1.00
     AMIN     =   0.10
     WC   =   100.;   INIMIX=   1;  MIXPRE=   1;  MAXMIX= -45

 Intra band minimization:
   WEIMIN = 0.0000     energy-eigenvalue tresh-hold
   EBREAK =  0.39E-07  absolut break condition
   DEPER  =   0.30     relativ break condition

   TIME   =   0.40     timestep for ELM

  volume/ion in A,a.u.               =      60.57       408.76
  Fermi-wavevector in a.u.,A,eV,Ry     =   0.815965  1.541950  9.058738  0.665798
  Thomas-Fermi vector in A             =   1.926148

 Write flags
   LWAVE        =      T    write WAVECAR
[...]
   LBONE     =     F  B-component reconstruction in AE one-centre
   LVGVCALC  =     T  calculate vGv susceptibility
   LVGVAPPL  =     F  apply vGv susceptibility instead of pGv for G=0

 Random number generation:
   RANDOM_GENERATOR = DEFAULT
   PCG_SEED         = not used

 Static calculation
 charge density and potential will be updated during run
 non-spin polarized calculation
 Variant of blocked Davidson
 Davidson routine will perform the subspace rotation
 perform sub-space diagonalisation
    after iterative eigenvector-optimisation
 modified Broyden-mixing scheme, WC =      100.0
 initial mixing is a Kerker type mixing with AMIX =  0.4000 and BMIX =      1.0000
 Hartree-type preconditioning will be used
 using additional bands           49
 reciprocal scheme for non local part
 use partial core corrections
 calculate Harris-corrections to forces
   (improved forces if not selfconsistent)
 use gradient corrections
 use of overlap-Matrix (Vanderbilt PP)
 Methfessel and Paxton  Order N= 1 SIGMA  =   0.10

  energy-cutoff  :      520.00
  volume of cell :      242.29
      direct lattice vectors                 reciprocal lattice vectors
     4.953899860  0.000000000  0.000000000     0.201861166  0.000000000  0.000000000
     0.000000000  2.823800087  0.000000000     0.000000000  0.354132718  0.000000000
     0.000000000  0.000000000 17.320100784     0.000000000  0.000000000  0.057736385

[...]

 k-points in units of 2pi/SCALE and weight: K-Spacing Value to Generate K-Mesh: 0.04
   0.00000000  0.00000000  0.00000000       0.022
   0.04037223  0.00000000  0.00000000       0.044
   0.08074447  0.00000000  0.00000000       0.044
   0.00000000  0.03934808  0.00000000       0.044
   0.04037223  0.03934808  0.00000000       0.089
   0.08074447  0.03934808  0.00000000       0.089
   0.00000000  0.07869616  0.00000000       0.044
   0.04037223  0.07869616  0.00000000       0.089
   0.08074447  0.07869616  0.00000000       0.089
   0.00000000  0.11804424  0.00000000       0.044
   0.04037223  0.11804424  0.00000000       0.089
   0.08074447  0.11804424  0.00000000       0.089
   0.00000000  0.15739232  0.00000000       0.044
   0.04037223  0.15739232  0.00000000       0.089
   0.08074447  0.15739232  0.00000000       0.089

 k-points in reciprocal lattice and weights: K-Spacing Value to Generate K-Mesh: 0.04
   0.00000000  0.00000000  0.00000000       0.022
   0.20000000  0.00000000  0.00000000       0.044
   0.40000000  0.00000000  0.00000000       0.044
   0.00000000  0.11111111  0.00000000       0.044
   0.20000000  0.11111111  0.00000000       0.089
   0.40000000  0.11111111  0.00000000       0.089
   0.00000000  0.22222222  0.00000000       0.044
   0.20000000  0.22222222  0.00000000       0.089
   0.40000000  0.22222222  0.00000000       0.089
   0.00000000  0.33333333  0.00000000       0.044
   0.20000000  0.33333333  0.00000000       0.089
   0.40000000  0.33333333  0.00000000       0.089
   0.00000000  0.44444444  0.00000000       0.044
   0.20000000  0.44444444  0.00000000       0.089
   0.40000000  0.44444444  0.00000000       0.089

 position of ions in fractional coordinates (direct lattice)
   0.67508000  0.00000000  0.40415001
   0.00000000  0.00000000  0.53811002
   0.17508000  0.50000000  0.40415001
   0.50000000  0.50000000  0.53811002

 position of ions in cartesian coordinates  (Angst):
   3.34427872  0.00000000  6.99991889
   0.00000000  0.00000000  9.32011974
   0.86732879  1.41190004  6.99991889
   2.47694993  1.41190004  9.32011974

 k-point     1 :   0.0000 0.0000 0.0000  plane waves:    6525
 k-point     2 :   0.2000 0.0000 0.0000  plane waves:    6521
 k-point     3 :   0.4000 0.0000 0.0000  plane waves:    6544
 k-point     4 :   0.0000 0.1111 0.0000  plane waves:    6531
 k-point     5 :   0.2000 0.1111 0.0000  plane waves:    6521
 k-point     6 :   0.4000 0.1111 0.0000  plane waves:    6529
 k-point     7 :   0.0000 0.2222 0.0000  plane waves:    6523
 k-point     8 :   0.2000 0.2222 0.0000  plane waves:    6522
 k-point     9 :   0.4000 0.2222 0.0000  plane waves:    6511
 k-point    10 :   0.0000 0.3333 0.0000  plane waves:    6512
 k-point    11 :   0.2000 0.3333 0.0000  plane waves:    6521
 k-point    12 :   0.4000 0.3333 0.0000  plane waves:    6533
 k-point    13 :   0.0000 0.4444 0.0000  plane waves:    6502
 k-point    14 :   0.2000 0.4444 0.0000  plane waves:    6509
 k-point    15 :   0.4000 0.4444 0.0000  plane waves:    6543

 maximum and minimum number of plane-waves per node :      6544     6502

 maximum number of plane-waves:      6544
 maximum index in each direction:
   IXMAX=    9   IYMAX=    5   IZMAX=   32
   IXMIN=   -9   IYMIN=   -5   IZMIN=  -32

 serial   3D FFT for wavefunctions
 parallel 3D FFT for charge:
    minimum data exchange during FFTs selected (reduces bandwidth)

 Broyden mixing: mesh for mixing (old mesh)
   NGX = 19   NGY = 11   NGZ = 65
  (NGX  = 56   NGY  = 32   NGZ  =196)
  gives a total of  13585 points

 initial charge density was supplied:
 charge density of overlapping atoms calculated
 number of electron      30.0000000 magnetization
 keeping initial charge density in first step

 Maximum index for augmentation-charges          436 (set IRDMAX)

 First call to EWALD:  gamma=   0.284
 Maximum number of real-space cells   3x   5x   1
 Maximum number of reciprocal cells   2x   2x   7

--------------------------------------- Ionic step        1  -------------------------------------------

--------------------------------------- Iteration      1(   1)  ---------------------------------------

 eigenvalue-minimisations  :  1920
 total energy-change (2. order) : 0.5883008E+02  (-0.1697064E+04)
 number of electron      30.0000000 magnetization
 augmentation part       30.0000000 magnetization

 Free energy of the ion-electron system (eV)
  alpha Z        PSCENC =        20.23987127
  Ewald energy   TEWEN  =      2769.02848834
  -Hartree energ DENC   =     -5583.44601112
  -exchange      EXHF   =         0.00000000
  -V(xc)+E(xc)   XCENC  =        69.64212264
  PAW double counting   =      2661.53069573    -2558.45184598
  entropy T*S    EENTRO =        -0.00497280
  eigenvalues    EBANDS =      -602.95515914
  atomic energy  EATOM  =      3283.24688878
  Solvation  Ediel_sol  =         0.00000000
  free energy    TOTEN  =        58.83007772 eV

  energy without entropy =       58.83505052  energy(sigma->0) =       58.83173532

[...]

 eigenvalue-minimisations  :  2880
 total energy-change (2. order) :-0.8325400E+02  (-0.8319189E+02)
 number of electron      30.0000000 magnetization
 augmentation part       30.0000000 magnetization

[...]

 Broyden mixing:
  rms(total) = 0.12437E+01    rms(broyden)= 0.12437E+01
  rms(prec ) = 0.14360E+01
  weight for this iteration     100.00

[...]

 eigenvalues of (default mixing * dielectric matrix)
  average eigenvalue GAMMA=   0.6702
  0.6702

[...]

 eigenvalue-minimisations  :  2880
 total energy-change (2. order) : 0.8824938E-03  (-0.3384914E-03)
 number of electron      29.9999961 magnetization
 augmentation part        7.3101813 magnetization

[...]

 Broyden mixing:
  rms(total) = 0.45933E-04    rms(broyden)= 0.45932E-04
  rms(prec ) = 0.55291E-04
  weight for this iteration     100.00

 eigenvalues of (default mixing * dielectric matrix)
  average eigenvalue GAMMA=   2.4266
  8.6392  5.7216  3.4441  3.0510  2.4841  2.0622  0.5227  1.5478  1.4013  0.8718
  0.9829  0.9829  1.1570  1.1042

[...]

--------------------------------------- Iteration      1(  20)  ---------------------------------------

 eigenvalue-minimisations  :  2688
 total energy-change (2. order) :-0.6996623E-05  (-0.6747715E-07)
 number of electron      29.9999961 magnetization
 augmentation part        7.3136173 magnetization

 Free energy of the ion-electron system (eV)
  alpha Z        PSCENC =        20.23987127
  Ewald energy   TEWEN  =      2769.02848834
  -Hartree energ DENC   =     -5592.97938737
  -exchange      EXHF   =         0.00000000
  -V(xc)+E(xc)   XCENC  =        68.17806568
  PAW double counting   =      3112.50319917    -3001.58189090
  entropy T*S    EENTRO =        -0.00237379
  eigenvalues    EBANDS =      -680.32276805
  atomic energy  EATOM  =      3283.24688878
  Solvation  Ediel_sol  =         0.00000000
  free energy    TOTEN  =       -21.68990687 eV

  energy without entropy =      -21.68753308  energy(sigma->0) =      -21.68911561

 average (electrostatic) potential at core
  the test charge radii are     1.0397  1.0406
  (the norm of the test charge is              1.0000)
       1 -81.6769       2 -81.6769       3 -80.4812       4 -80.4813

 E-fermi :  -0.7291     XC(G=0):  -4.0808     alpha+bet : -4.3450

 val. band max:       -0.7443906877   @ k =   0.0000   0.1111   0.0000
 cond. band min:      -0.7288205680   @ k =   0.4000   0.4444   0.0000
 fundamental gap:      0.0155701197
 Fermi energy:        -0.7291251768

 k-point     1 :       0.0000    0.0000    0.0000
  band No.  band energies     occupation
      1     -57.6629      2.00000
      2     -57.6340      2.00000
      3     -34.1055      2.00000
      4     -34.0501      2.00000
      5     -33.9834      2.00000
      6     -33.8306      2.00000
      7     -33.5052      2.00000
      8     -33.4843      2.00000
      9      -8.6567      2.00000
     10      -6.3211      2.00000
     11      -2.8252      2.00000
     12      -2.7251      2.00000
     13      -2.0418      2.00000
     14      -1.4180      2.00000
     15      -0.9463      2.00882
     16      -0.7026      0.56883
     17      -0.5509     -0.03025
     18       0.3511     -0.00000
     19       0.5657     -0.00000
     20       1.1900     -0.00000
     21       1.3601      0.00000
     22       1.4226      0.00000
     23       1.9347      0.00000
     24       2.8673      0.00000
     25       3.0257      0.00000
     26       3.5506      0.00000
     27       3.5684      0.00000
     28       4.4860      0.00000
     29       4.7374      0.00000
     30       5.5488      0.00000
     31       6.5172      0.00000
     32       7.4527      0.00000
     33       7.5771      0.00000
     34       8.3926      0.00000
     35       8.4106      0.00000
     36       8.7960      0.00000
     37       9.2195      0.00000
     38       9.2689      0.00000
     39       9.9646      0.00000
     40      10.3746      0.00000
     41      10.5435      0.00000
     42      10.6316      0.00000
     43      10.8819      0.00000
     44      11.6187      0.00000
     45      11.7240      0.00000
     46      12.2674      0.00000
     47      12.3684      0.00000
     48      13.4103      0.00000
     49      13.4160      0.00000
     50      14.2263      0.00000
     51      14.5283      0.00000
     52      15.4289      0.00000
     53      15.4316      0.00000
     54      16.0129      0.00000
     55      16.3321      0.00000
     56      16.4167      0.00000
     57      16.4758      0.00000
     58      16.5916      0.00000
     59      16.8674      0.00000
     60      17.1947      0.00000
     61      17.4636      0.00000
     62      18.0423      0.00000
     63      18.1502      0.00000
     64      18.1743      0.00000

[...]

 k-point    15 :       0.4000    0.4444    0.0000
  band No.  band energies     occupation
      1     -57.6086      2.00000
      2     -57.5811      2.00000
      3     -34.0510      2.00000
      4     -34.0036      2.00000
      5     -33.9479      2.00000
      6     -33.9273      2.00000
      7     -33.9162      2.00000
      8     -33.7857      2.00000
      9      -5.0321      2.00000
     10      -3.8242      2.00000
     11      -3.0727      2.00000
     12      -2.1334      2.00000
     13      -1.6772      2.00000
     14      -1.0395      2.00010
     15      -0.7288      0.99484
     16      -0.3492     -0.00000
     17      -0.2711     -0.00000
     18      -0.0426     -0.00000
     19       0.5794     -0.00000
     20       0.6618     -0.00000
     21       1.4498      0.00000
     22       2.0716      0.00000
     23       2.3808      0.00000
     24       2.7400      0.00000
     25       4.2192      0.00000
     26       5.0057      0.00000
     27       5.0399      0.00000
     28       5.3704      0.00000
     29       6.3930      0.00000
     30       6.6220      0.00000
     31       7.4345      0.00000
     32       7.5376      0.00000
     33       7.8297      0.00000
     34       8.4050      0.00000
     35       8.7837      0.00000
     36       8.9992      0.00000
     37       9.1100      0.00000
     38       9.5377      0.00000
     39       9.8400      0.00000
     40      10.1469      0.00000
     41      10.2754      0.00000
     42      10.5317      0.00000
     43      10.7940      0.00000
     44      10.8106      0.00000
     45      11.0710      0.00000
     46      11.3509      0.00000
     47      11.8079      0.00000
     48      12.1015      0.00000
     49      12.2477      0.00000
     50      12.3885      0.00000
     51      12.5572      0.00000
     52      13.0771      0.00000
     53      13.2718      0.00000
     54      13.4555      0.00000
     55      13.6804      0.00000
     56      14.0925      0.00000
     57      14.3929      0.00000
     58      14.7486      0.00000
     59      14.9056      0.00000
     60      15.2505      0.00000
     61      15.5130      0.00000
     62      16.1332      0.00000
     63      16.3747      0.00000
     64      16.6706      0.00000

 soft charge-density along one line, spin component           1
         0         1         2         3         4         5         6         7         8         9
 total charge-density along one line

------------------------ aborting loop because EDIFF is reached ----------------------------------------

  FORCE on cell =-STRESS in cart. coord.  units (eV):
  Direction    XX          YY          ZZ          XY          YZ          ZX
  Alpha Z    20.23987    20.23987    20.23987
  Ewald    3954.26896  4363.82555 -5549.06686     0.00000     0.00000   113.44970
  Hartree  4721.79273  5079.04884 -4207.86394     0.00000    -0.00000   100.08331
  E(xc)    -142.89090  -142.41355  -143.39421     0.00000    -0.00000     0.10459
  Local   -9023.47785 -9801.60239  9416.69697     0.00000    -0.00000  -215.34835
  n-local   -25.31789   -40.24842   -26.21083    -5.90316     0.38553    -2.18537
  augment   119.11918   125.52612   117.18456     0.00000    -0.00000     1.25240
  Kinetic   372.37633   394.57215   371.65708     7.30641     0.37238     2.30522
  Fock        0.00000     0.00000     0.00000     0.00000     0.00000     0.00000
  Total      -3.88957    -1.05183    -0.75736     0.00000     0.00000    -0.33851
  in kB     -25.72056    -6.95547    -5.00822     0.00000     0.00000    -2.23843

 VOLUME and BASIS-vectors are now :
  energy-cutoff  :      520.00
  volume of cell :      242.29
      direct lattice vectors                 reciprocal lattice vectors
     4.953899860  0.000000000  0.000000000     0.201861166  0.000000000  0.000000000
     0.000000000  2.823800087  0.000000000     0.000000000  0.354132718  0.000000000
     0.000000000  0.000000000 17.320100784     0.000000000  0.000000000  0.057736385

  length of vectors
     4.953899860  2.823800087 17.320100784     0.201861166  0.354132718  0.057736385

 FORCES acting on ions
    electron-ion (+dipol)            ewald-force                    non-local-force                 convergence-correction
   0.651E+02 -.377E-14 0.820E+03   -.651E+02 -.721E-14 -.817E+03   0.441E-01 0.000E+00 -.263E+01   0.259E-03 -.103E-13 0.782E-04
   -.651E+02 0.881E-14 -.820E+03   0.651E+02 -.306E-14 0.817E+03   -.441E-01 0.000E+00 0.263E+01   -.259E-03 0.386E-13 -.784E-04
   -.163E+02 0.311E-13 0.219E+03   0.162E+02 -.250E-14 -.217E+03   0.161E+00 0.000E+00 -.170E+01   -.303E-04 -.175E-15 0.268E-04
   0.163E+02 -.215E-13 -.219E+03   -.162E+02 -.234E-14 0.217E+03   -.161E+00 0.000E+00 0.170E+01   0.303E-04 0.179E-16 -.269E-04
   0.235E-03 0.146E-13 -.135E-03   0.178E-13 -.151E-13 -.568E-13   0.000E+00 0.000E+00 0.222E-15   -.688E-08 0.281E-13 -.256E-06

 POSITION                                       TOTAL-FORCE (eV/Angst)
      3.34428      0.00000      6.99992         0.072221      0.000000      0.344110
      0.00000      0.00000      9.32012        -0.072221      0.000000     -0.344110
      0.86733      1.41190      6.99992         0.073057      0.000000     -0.023507
      2.47695      1.41190      9.32012        -0.073057      0.000000      0.023507
    total drift:                                0.000235      0.000000     -0.000135

  FREE ENERGIE OF THE ION-ELECTRON SYSTEM (eV)
  free  energy   TOTEN  =       -21.68990687 eV

  energy  without entropy=      -21.68753308  energy(sigma->0) =      -21.68911561

 writing wavefunctions