 vasp.6.5.0 16Dec24 (build Apr 17 2025 17:55:45) complex

 executed on             LinuxIFC date 2025.06.03  21:52:51

 INCAR:
   SYSTEM = CaNi2
   ISTART = 0
   ICHARG = 2
   PREC = N
   LREAL = .FALSE.
   ENCUT = 520
   ALGO = N
   NELM = 500
   EDIFF = 1E-05
   IBRION = 1
   ISIF = 3
   NSW = 300
   EDIFFG = -0.01
   ISMEAR = 0
   SIGMA = 0.1

 POTCAR:    PAW_PBE Ti_sv 26Sep2005
 POTCAR:    PAW_PBE Al 04Jan2001
 POTCAR:    PAW_PBE Ga_d 06Jul2010
|           W    W    AA    RRRRR   N    N  II  N    N   GGGG   !!!           |
|           W    W   A  A   R    R  NN   N  II  NN   N  G    G  !!!           |
|           W    W  A    A  R    R  N N  N  II  N N  N  G       !!!           |
|           W WW W  AAAAAA  RRRRR   N  N N  II  N  N N  G  GGG   !            |
|           WW  WW  A    A  R   R   N   NN  II  N   NN  G    G                |
|           W    W  A    A  R    R  N    N  II  N    N   GGGG   !!!           |
|     For optimal performance we recommend to set                             |
|       NCORE = 2 up to number-of-cores-per-socket                            |
|     This setting can greatly improve the performance of VASP for DFT.       |
|     The default, NCORE=1 might be grossly inefficient on modern             |
|     multi-core architectures or massively parallel machines. Do your        |
|     Unfortunately you need to use the default for GW and RPA                |
|     calculations (for HF NCORE is supported but not extensively tested      |
|     yet).                                                                   |

   TITEL  = PAW_PBE Ti_sv 26Sep2005
   POMASS =   47.880; ZVAL   =   12.000    mass and valenz
   ENMAX  =  274.610; ENMIN  =  205.957 eV

   TITEL  = PAW_PBE Al 04Jan2001
   POMASS =   26.981; ZVAL   =    3.000    mass and valenz
   ENMAX  =  240.300; ENMIN  =  180.225 eV

   TITEL  = PAW_PBE Ga_d 06Jul2010
   POMASS =   69.723; ZVAL   =   13.000    mass and valenz
   ENMAX  =  282.691; ENMIN  =  212.018 eV

  PAW_PBE Ti_sv 26Sep2005               :
  PAW_PBE Al 04Jan2001                  :
  PAW_PBE Ga_d 06Jul2010                :

 POSCAR: Ti1 Al1
  positions in direct lattice
  velocities in cartesian coordinates

 exchange-correlation table for PE
   RHO(1)=    0.500       N(1)  =     2000
   RHO(2)=  100.500       N(2)  =     4000

 ion  position               nearest neighbor table
   1  0.000  0.000  0.000-   3 2.82   5 2.82   3 2.82   5 2.82  11 2.85  12 2.85  13 2.85  14 2.85
                            15 2.85  16 2.85   9 2.85  10 2.85
   2  0.000  0.000  0.500-   4 2.82   6 2.82   4 2.82   6 2.82  11 2.85  12 2.85  13 2.85  14 2.85
                            15 2.85  16 2.85   9 2.85  10 2.85
   3  0.000  0.500  0.000-   1 2.82   7 2.82   1 2.82   7 2.82  11 2.85  12 2.85  13 2.85  14 2.85
                            15 2.85  16 2.85   9 2.85  10 2.85
   4  0.000  0.500  0.500-   2 2.82   8 2.82   2 2.82   8 2.82  11 2.85  12 2.85  13 2.85  14 2.85
                            15 2.85  16 2.85   9 2.85  10 2.85
   5  0.500  0.000  0.000-   1 2.82   7 2.82   7 2.82   1 2.82  11 2.85  12 2.85  13 2.85  14 2.85
                            15 2.85  16 2.85   9 2.85  10 2.85
   6  0.500  0.000  0.500-   2 2.82   8 2.82   8 2.82   2 2.82  11 2.85  12 2.85  13 2.85  14 2.85
                            15 2.85  16 2.85   9 2.85  10 2.85
   7  0.500  0.500  0.000-  17 2.04   5 2.82   3 2.82   5 2.82   3 2.82  12 2.85  13 2.85  14 2.85
                            15 2.85  16 2.85   9 2.85  10 2.85  11 2.85
   8  0.500  0.500  0.500-  17 2.04   6 2.82   4 2.82   6 2.82   4 2.82  12 2.85  13 2.85  14 2.85
                            15 2.85  16 2.85   9 2.85  10 2.85  11 2.85
   9  0.250  0.250  0.250-  11 2.82  13 2.82  11 2.82  13 2.82   5 2.85   6 2.85   7 2.85   8 2.85
                             1 2.85   2 2.85   3 2.85   4 2.85
  10  0.250  0.250  0.750-  17 2.00  14 2.82  12 2.82  12 2.82  14 2.82   6 2.85   7 2.85   8 2.85
                             1 2.85   2 2.85   3 2.85   4 2.85   5 2.85
  11  0.250  0.750  0.250-   9 2.82  15 2.82   9 2.82  15 2.82   5 2.85   6 2.85   7 2.85   8 2.85
                             1 2.85   2 2.85   3 2.85   4 2.85
  12  0.250  0.750  0.750-  17 2.00  16 2.82  10 2.82  10 2.82  16 2.82   6 2.85   7 2.85   8 2.85
                             1 2.85   2 2.85   3 2.85   4 2.85   5 2.85
  13  0.750  0.250  0.250-   9 2.82  15 2.82  15 2.82   9 2.82   5 2.85   6 2.85   7 2.85   8 2.85
                             1 2.85   2 2.85   3 2.85   4 2.85
  14  0.750  0.250  0.750-  17 2.00  16 2.82  10 2.82  16 2.82  10 2.82   6 2.85   7 2.85   8 2.85
                             1 2.85   2 2.85   3 2.85   4 2.85   5 2.85
  15  0.750  0.750  0.250-  11 2.82  13 2.82  13 2.82  11 2.82   5 2.85   6 2.85   7 2.85   8 2.85
                             1 2.85   2 2.85   3 2.85   4 2.85
  16  0.750  0.750  0.750-  17 2.00  14 2.82  12 2.82  14 2.82  12 2.82   6 2.85   7 2.85   8 2.85
                             1 2.85   2 2.85   3 2.85   4 2.85   5 2.85
  17  0.500  0.500  0.750-  10 2.00  12 2.00  14 2.00  16 2.00   7 2.04   8 2.04

  LATTYP: Found a simple tetragonal cell.
 ALAT       =     5.6476373672
 C/A-ratio  =     1.4414285973

  Lattice vectors:

 A1 = (   5.6476373672,   0.0000000000,   0.0000000000)
 A2 = (   0.0000000000,   5.6476373672,   0.0000000000)
 A3 = (   0.0000000000,   0.0000000000,   8.1406660080)

Analysis of symmetry for initial positions (statically):
 Subroutine PRICEL returns:
 Original cell was already a primitive cell.

 Routine SETGRP: Setting up the symmetry group for a
 simple tetragonal supercell.

 Subroutine GETGRP returns: Found 16 space group operations
 (whereof  8 operations were pure point group operations)
 out of a pool of 16 trial point group operations.

The static configuration has the point symmetry C_4v.
 The point group associated with its full space group is D_4h.

Analysis of symmetry for dynamics (positions and initial velocities):
 Subroutine PRICEL returns:
 Original cell was already a primitive cell.

 Routine SETGRP: Setting up the symmetry group for a
 simple tetragonal supercell.

 Subroutine GETGRP returns: Found 16 space group operations
 (whereof  8 operations were pure point group operations)
 out of a pool of 16 trial point group operations.

The dynamic configuration has the point symmetry C_4v.
 The point group associated with its full space group is D_4h.

 Subroutine INISYM returns: Found 16 space group operations
 (whereof  8 operations are pure point group operations),
 and found     1 'primitive' translations

                                     Primitive cell

  volume of cell :     259.6531

  direct lattice vectors                    reciprocal lattice vectors
     5.647637367  0.000000000  0.000000000     0.177065193  0.000000000  0.000000000
     0.000000000  5.647637367  0.000000000     0.000000000  0.177065193  0.000000000
     0.000000000  0.000000000  8.140666008     0.000000000  0.000000000  0.122840072

  length of vectors
     5.647637367  5.647637367  8.140666008     0.177065193  0.177065193  0.122840072

  position of ions in fractional coordinates (direct lattice)
     0.000000000  0.000000000  0.000000000
     0.000000000  0.000000000  0.500000000
     0.000000000  0.500000000  0.000000000
     0.000000000  0.500000000  0.500000000
     0.500000000  0.000000000  0.000000000
     0.500000000  0.000000000  0.500000000
     0.500000000  0.500000000  0.000000000
     0.500000000  0.500000000  0.500000000
     0.250000000  0.250000000  0.250000000
     0.250000000  0.250000000  0.750000000
     0.250000000  0.750000000  0.250000000
     0.250000000  0.750000000  0.750000000
     0.750000000  0.250000000  0.250000000
     0.750000000  0.250000000  0.750000000
     0.750000000  0.750000000  0.250000000
     0.750000000  0.750000000  0.750000000
     0.500000000  0.500000000  0.750000000

  ion indices of the primitive-cell ions
   primitive index   ion index
                 1           1
                 2           2
                 3           3
                 4           4
                 5           5
                 6           6
                 7           7
                 8           8
                 9           9
                10          10
                11          11
                12          12
                13          13
                14          14
                15          15
                16          16
                17          17

 KPOINTS: K-Spacing Value to Generate K-Mesh: 0.03

Automatic generation of k-mesh.
 Grid dimensions read from file:
 generate k-points for:    6    6    4

 Generating k-lattice:

  Cartesian coordinates                     Fractional coordinates (reciprocal lattice)
     0.029510865  0.000000000  0.000000000     0.166666667  0.000000000  0.000000000
     0.000000000  0.029510865  0.000000000     0.000000000  0.166666667  0.000000000
     0.000000000  0.000000000  0.030710018     0.000000000  0.000000000  0.250000000

  Length of vectors
     0.029510865  0.029510865  0.030710018

  Shift w.r.t. Gamma in fractional coordinates (k-lattice)
     0.000000000  0.000000000  0.000000000

 Subroutine IBZKPT returns following result:

 Found     30 irreducible k-points:

 Following reciprocal coordinates:
            Coordinates               Weight
  0.000000  0.000000  0.000000      1.000000
  0.166667  0.000000  0.000000      4.000000
  0.333333  0.000000  0.000000      4.000000
  0.500000  0.000000  0.000000      2.000000
  0.166667  0.166667  0.000000      4.000000
  0.333333  0.166667  0.000000      8.000000
  0.500000  0.166667  0.000000      4.000000
  0.333333  0.333333  0.000000      4.000000
  0.500000  0.333333  0.000000      4.000000
  0.500000  0.500000  0.000000      1.000000
  0.000000  0.000000  0.250000      2.000000
  0.166667  0.000000  0.250000      8.000000
  0.333333  0.000000  0.250000      8.000000
  0.500000  0.000000  0.250000      4.000000
  0.166667  0.166667  0.250000      8.000000
  0.333333  0.166667  0.250000     16.000000
  0.500000  0.166667  0.250000      8.000000
  0.333333  0.333333  0.250000      8.000000
  0.500000  0.333333  0.250000      8.000000
  0.500000  0.500000  0.250000      2.000000
  0.000000  0.000000  0.500000      1.000000
  0.166667  0.000000  0.500000      4.000000
  0.333333  0.000000  0.500000      4.000000
  0.500000  0.000000  0.500000      2.000000
  0.166667  0.166667  0.500000      4.000000
  0.333333  0.166667  0.500000      8.000000
  0.500000  0.166667  0.500000      4.000000
  0.333333  0.333333  0.500000      4.000000
  0.500000  0.333333  0.500000      4.000000
  0.500000  0.500000  0.500000      1.000000

 Following cartesian coordinates:
            Coordinates               Weight
  0.000000  0.000000  0.000000      1.000000
  0.029511  0.000000  0.000000      4.000000
  0.059022  0.000000  0.000000      4.000000
  0.088533  0.000000  0.000000      2.000000
  0.029511  0.029511  0.000000      4.000000
  0.059022  0.029511  0.000000      8.000000
  0.088533  0.029511  0.000000      4.000000
  0.059022  0.059022  0.000000      4.000000
  0.088533  0.059022  0.000000      4.000000
[...]
   -.477E+01 0.477E+01 0.801E-12   0.476E+01 -.476E+01 -.120E-14   0.100E-01 -.100E-01 0.108E-18   0.233E-02 -.233E-02 0.535E-13
   -.822E+02 0.822E+02 0.922E-12   0.824E+02 -.824E+02 0.101E-14   0.482E+01 -.482E+01 0.000E+00   0.187E-02 -.187E-02 -.571E-13
   -.477E+01 -.477E+01 0.388E-12   0.476E+01 0.476E+01 -.335E-14   0.100E-01 0.100E-01 -.217E-18   0.233E-02 0.233E-02 0.529E-13
   -.822E+02 -.822E+02 0.562E-12   0.824E+02 0.824E+02 0.912E-15   0.482E+01 0.482E+01 0.000E+00   0.187E-02 0.187E-02 -.569E-13
   0.568E-12 -.689E-11 0.239E-11   0.654E-13 0.493E-13 0.749E-13   0.165E-23 0.000E+00 -.662E-23   0.984E-13 0.180E-12 -.403E-12
   0.233E-11 -.634E-11 0.120E-10   -.567E-14 -.218E-13 0.703E-13   -.888E-15 -.266E-14 0.133E-14   0.948E-13 0.166E-12 -.338E-12

 POSITION                                       TOTAL-FORCE (eV/Angst)
      0.00000      0.00000      0.00000         0.000000      0.000000      0.039176
      0.00000      0.00000      4.07033         0.000000      0.000000     -0.039176
      0.00000      2.82382      0.00000         0.000000     -0.000000      0.198139
      0.00000      2.82382      4.07033         0.000000      0.000000     -0.198139
      2.82382      0.00000      0.00000         0.000000      0.000000      0.198139
      2.82382      0.00000      4.07033         0.000000      0.000000     -0.198139
      2.82382      2.82382      0.00000         0.000000      0.000000      8.938480
      2.82382      2.82382      4.07033         0.000000      0.000000     -8.938480
      1.41191      1.41191      2.03517        -0.005100     -0.005100     -0.000000
      1.41191      1.41191      6.10550        -5.014758     -5.014758     -0.000000
      1.41191      4.23573      2.03517        -0.005100      0.005100     -0.000000
      1.41191      4.23573      6.10550        -5.014758      5.014758     -0.000000
      4.23573      1.41191      2.03517         0.005100     -0.005100     -0.000000
      4.23573      1.41191      6.10550         5.014758     -5.014758     -0.000000
      4.23573      4.23573      2.03517         0.005100      0.005100     -0.000000
      4.23573      4.23573      6.10550         5.014758      5.014758     -0.000000
      2.82382      2.82382      6.10550         0.000000     -0.000000     -0.000000
    total drift:                                0.000000     -0.000000      0.000000

  FREE ENERGIE OF THE ION-ELECTRON SYSTEM (eV)
  free  energy   TOTEN  =       -91.37046463 eV

  energy  without entropy=      -91.30589972  energy(sigma->0) =      -91.33818218

 Quasi-Newton relaxation of ions (Broydens 2nd method)
  g(Force)  = 0.174E+02   g(Stress)= 0.891E+01

 Reset! Starting new Quasi-Newton update for ions

[...]

  energy  without entropy=      -95.75990005  energy(sigma->0) =      -95.80195837
 d Force = 0.8575817E+01[-0.191E+01, 0.191E+02]  d Energy = 0.4473552E+01 0.410E+01
 d Force = 0.4352844E+03[ 0.187E+03, 0.683E+03]  d Ewald  =-0.4554674E+03 0.891E+03

[...]

 retain information from N=  1 steps
 eigenvalues of (default step * inverse Hessian matrix)
  average eigenvalue of G=   0.5438
 eigenvalue spectrum of G is  0.5438

[...]

  energy  without entropy=      -98.06104304  energy(sigma->0) =      -98.09887696
 d Force = 0.2018764E+00[ 0.218E+00, 0.185E+00]  d Energy = 0.2292694E+01-0.209E+01
 d Force =-0.5689754E+01[-0.679E+01,-0.459E+01]  d Ewald  = 0.4158268E+03-0.422E+03

[...]

  energy  without entropy=      -98.53977102  energy(sigma->0) =      -98.57585532
 d Force = 0.2408064E-01[ 0.165E-01, 0.317E-01]  d Energy = 0.2717907E-01-0.310E-02
 d Force = 0.4180873E+01[ 0.402E+01, 0.435E+01]  d Ewald  = 0.1705551E+02-0.129E+02

[...]

  energy  without entropy=      -98.55750273  energy(sigma->0) =      -98.59297381
 d Force = 0.7979579E-03[ 0.666E-03, 0.930E-03]  d Energy = 0.7297744E-03 0.682E-04
 d Force =-0.4408793E+00[-0.456E+00,-0.426E+00]  d Ewald  = 0.1289132E+01-0.173E+01

[...]

  energy  without entropy=      -98.55740103  energy(sigma->0) =      -98.59290044
 d Force =-0.1704542E-03[-0.177E-03,-0.164E-03]  d Energy =-0.4504850E-04-0.125E-03
 d Force = 0.2408625E-01[ 0.234E-01, 0.248E-01]  d Ewald  =-0.2340573E+01 0.236E+01

[...]

  energy  without entropy=      -98.55726253  energy(sigma->0) =      -98.59273638
 d Force = 0.3953938E-03[ 0.348E-03, 0.442E-03]  d Energy =-0.1896145E-03 0.585E-03
 d Force =-0.2009854E+00[-0.206E+00,-0.196E+00]  d Ewald  = 0.6691466E+01-0.689E+01

[...]

  energy  without entropy=      -98.55766567  energy(sigma->0) =      -98.59315111
 d Force = 0.1775919E-03[ 0.161E-03, 0.194E-03]  d Energy = 0.4263190E-03-0.249E-03
 d Force =-0.2584289E+00[-0.261E+00,-0.256E+00]  d Ewald  =-0.2219934E+01 0.196E+01

[...]

  energy  without entropy=      -98.55080787  energy(sigma->0) =      -98.58680842
 d Force =-0.7629179E-03[-0.342E-02, 0.190E-02]  d Energy =-0.5827593E-02 0.506E-02
 d Force =-0.3189262E+01[-0.345E+01,-0.293E+01]  d Ewald  =-0.3403768E+02 0.308E+02

[...]

  energy  without entropy=      -98.55785912  energy(sigma->0) =      -98.59347553
 d Force = 0.1086661E-02[ 0.188E-03, 0.199E-02]  d Energy = 0.6282976E-02-0.520E-02
 d Force = 0.1812113E+01[ 0.173E+01, 0.189E+01]  d Ewald  = 0.2139458E+02-0.196E+02

[...]

--------------------------------------- Ionic step       15  -------------------------------------------

[...]

 eigenvalue-minimisations  : 11456
 total energy-change (2. order) : 0.7766422E-04  (-0.3602947E-04)
 number of electron     133.0000306 magnetization
 augmentation part       37.9197675 magnetization

[...]

 Broyden mixing:
  rms(total) = 0.60399E-03    rms(broyden)= 0.60118E-03
  rms(prec ) = 0.82708E-03
  weight for this iteration     100.00

 eigenvalues of (default mixing * dielectric matrix)
  average eigenvalue GAMMA=   1.0850
  2.2513  2.2513  1.1242  0.8397  0.6588  0.2530  0.2168

[...]

--------------------------------------- Iteration     15(   9)  ---------------------------------------

 eigenvalue-minimisations  :  6528
 total energy-change (2. order) :-0.2564251E-05  (-0.6936198E-06)
 number of electron     133.0000306 magnetization
 augmentation part       37.9074400 magnetization

 Free energy of the ion-electron system (eV)
  alpha Z        PSCENC =       353.75656847
  Ewald energy   TEWEN  =     -9823.54474122
  -Hartree energ DENC   =     -4574.50027390
  -exchange      EXHF   =         0.00000000
  -V(xc)+E(xc)   XCENC  =       321.98268762
  PAW double counting   =     14841.21052284   -14741.27608948
  entropy T*S    EENTRO =        -0.07099536
  eigenvalues    EBANDS =     -1758.00177082
  atomic energy  EATOM  =     15281.81476201
  Solvation  Ediel_sol  =         0.00000000
  free energy    TOTEN  =       -98.62932984 eV

  energy without entropy =      -98.55833448  energy(sigma->0) =      -98.59383216

 average (electrostatic) potential at core
  the test charge radii are     1.0397  1.0406  1.0314
  (the norm of the test charge is              1.0000)
       1 -72.6562       2 -72.6562       3 -73.0077       4 -73.0077       5 -73.0077
       6 -73.0077       7 -72.6754       8 -72.6754       9 -71.7288      10 -72.1332
      11 -71.7288      12 -72.1332      13 -71.7288      14 -72.1332      15 -71.7288
      16 -72.1332      17 -62.7335

 E-fermi :   8.0271     XC(G=0): -10.9195     alpha+bet :-15.5516

 val. band max:        8.0256387243   @ k =   0.5000   0.0000   0.2500
 cond. band min:       8.0312415541   @ k =   0.1667   0.0000   0.0000
 fundamental gap:      0.0056028299
 Fermi energy:         8.0270558173

[...]

 k-point    30 :       0.5000    0.5000    0.5000
  band No.  band energies     occupation
      1     -48.9365      2.00000
      2     -48.9365      2.00000
      3     -48.9364      2.00000
      4     -48.9364      2.00000
      5     -48.6390      2.00000
      6     -48.6357      2.00000
      7     -48.6034      2.00000
      8     -48.6029      2.00000
      9     -25.3328      2.00000
     10     -25.3328      2.00000
     11     -25.3308      2.00000
     12     -25.3308      2.00000
     13     -25.1641      2.00000
     14     -25.1632      2.00000
     15     -25.1484      2.00000
     16     -25.1482      2.00000
     17     -25.1115      2.00000
     18     -25.1110      2.00000
     19     -25.1004      2.00000
     20     -25.1002      2.00000
     21     -25.0229      2.00000
     22     -24.9877      2.00000
     23     -24.9829      2.00000
     24     -24.9775      2.00000
     25     -24.8878      2.00000
     26     -24.8878      2.00000
     27     -24.8826      2.00000
     28     -24.8826      2.00000
     29     -24.8321      2.00000
     30     -24.8321      2.00000
     31     -24.8311      2.00000
     32     -24.8311      2.00000
     33      -7.4264      2.00000
     34      -7.3209      2.00000
     35      -7.2830      2.00000
     36      -7.2339      2.00000
     37      -7.2339      2.00000
     38      -0.7243      2.00000
     39       0.5236      2.00000
     40       1.1547      2.00000
     41       1.1547      2.00000
     42       1.5669      2.00000
     43       1.8072      2.00000
     44       1.8072      2.00000
     45       1.9361      2.00000
     46       5.3422      2.00000
     47       5.5786      2.00000
     48       5.6482      2.00000
     49       5.6580      2.00000
     50       5.6580      2.00000
     51       5.6911      2.00000
     52       6.1442      2.00000
     53       6.1442      2.00000
     54       6.4409      2.00000
     55       6.4409      2.00000
     56       6.9632      2.00000
     57       7.1027      2.00000
     58       7.1102      2.00000
     59       7.2405      2.00000
     60       7.2482      2.00000
[...]
    114      15.9199      0.00000
    115      16.1074      0.00000
    116      16.1730      0.00000
    117      16.1730      0.00000
    118      16.7682      0.00000
    119      17.0909      0.00000
    120      17.1685      0.00000
    121      17.1685      0.00000
    122      17.1896      0.00000
    123      17.2541      0.00000
    124      17.2541      0.00000
    125      17.3273      0.00000
    126      17.3355      0.00000
    127      17.3864      0.00000
    128      17.3864      0.00000

 soft charge-density along one line, spin component           1
         0         1         2         3         4         5         6         7         8         9
 total charge-density along one line

------------------------ aborting loop because EDIFF is reached ----------------------------------------

  FORCE on cell =-STRESS in cart. coord.  units (eV):
  Direction    XX          YY          ZZ          XY          YZ          ZX
  Alpha Z   353.75657   353.75657   353.75657
  Ewald   -3102.58969 -3102.58969 -3618.38885     0.00000    -0.00000    -0.00000
  Hartree  1709.73775  1709.73775  1155.08869    -0.00000    -0.00000    -0.00000
  E(xc)    -654.53306  -654.53306  -655.07919    -0.00000    -0.00000    -0.00000
  Local    -417.32321  -417.32321   678.81022    -0.00000    -0.00000     0.00000
  n-local   -91.61253  -114.09816   -71.79783    -2.31198     1.35364     2.50143
  augment   617.23379   617.23379   601.71131    -0.00000     0.00000    -0.00000
  Kinetic  1587.31737  1605.84872  1555.94077     0.68125    -2.66768    -3.00135
  Fock        0.00000     0.00000     0.00000     0.00000     0.00000     0.00000
  Total       0.00985     0.00985     0.04169     0.00000     0.00000     0.00000
  in kB       0.05538     0.05538     0.23445     0.00000     0.00000     0.00000

 VOLUME and BASIS-vectors are now :
  energy-cutoff  :      520.00
  volume of cell :      284.88
      direct lattice vectors                 reciprocal lattice vectors
     5.858455502  0.000000000  0.000000000     0.170693453  0.000000000  0.000000000
     0.000000000  5.858455502  0.000000000     0.000000000  0.170693453 -0.000000000
     0.000000000  0.000000000  8.300273972     0.000000000 -0.000000000  0.120477951

  length of vectors
     5.858455502  5.858455502  8.300273972     0.170693453  0.170693453  0.120477951

 FORCES acting on ions
    electron-ion (+dipol)            ewald-force                    non-local-force                 convergence-correction
   -.185E-13 0.485E-13 -.454E+02   0.303E-13 -.927E-14 0.445E+02   0.000E+00 0.000E+00 0.862E+00   0.620E-13 0.246E-13 0.662E-03
   -.155E-13 -.194E-13 0.454E+02   0.296E-14 -.941E-14 -.445E+02   0.000E+00 0.434E-18 -.862E+00   -.249E-13 -.265E-13 -.662E-03
   -.237E-13 0.330E-12 -.443E+02   0.770E-14 0.805E-14 0.454E+02   0.000E+00 0.000E+00 -.110E+01   0.891E-14 -.127E-13 -.282E-03
   0.121E-14 0.223E-12 0.443E+02   0.760E-14 0.114E-13 -.454E+02   0.000E+00 0.000E+00 0.110E+01   -.548E-13 -.289E-13 0.282E-03
   0.431E-12 -.147E-13 -.443E+02   -.174E-13 -.728E-14 0.454E+02   0.000E+00 -.867E-18 -.110E+01   -.113E-12 0.405E-13 -.282E-03
   0.437E-12 0.249E-13 0.443E+02   -.430E-14 0.139E-14 -.454E+02   0.217E-18 0.867E-18 0.110E+01   0.160E-13 -.526E-13 0.282E-03
   0.504E-12 -.159E-11 -.219E+03   -.191E-13 0.543E-14 0.220E+03   0.000E+00 0.867E-18 -.615E+00   -.143E-13 0.479E-13 0.209E-02
   0.508E-12 -.132E-11 0.219E+03   -.114E-14 -.679E-14 -.220E+03   0.000E+00 0.000E+00 0.615E+00   -.240E-13 0.895E-13 -.209E-02
   0.943E+01 0.943E+01 0.260E-06   -.937E+01 -.937E+01 0.103E-14   -.592E-01 -.592E-01 0.217E-18   0.514E-04 0.514E-04 0.116E-12
   0.308E+02 0.308E+02 0.185E-05   -.327E+02 -.327E+02 0.574E-14   0.186E+01 0.186E+01 0.000E+00   -.474E-04 -.474E-04 -.118E-12
   0.943E+01 -.943E+01 0.225E-12   -.937E+01 0.937E+01 0.138E-13   -.592E-01 0.592E-01 0.217E-18   0.514E-04 -.514E-04 0.118E-12
   0.308E+02 -.308E+02 -.319E-13   -.327E+02 0.327E+02 0.192E-13   0.186E+01 -.186E+01 0.949E-19   -.474E-04 0.474E-04 -.116E-12
   -.943E+01 0.943E+01 -.101E-11   0.937E+01 -.937E+01 0.865E-15   0.592E-01 -.592E-01 -.217E-18   -.514E-04 0.514E-04 0.120E-12
   -.308E+02 0.308E+02 0.397E-13   0.327E+02 -.327E+02 0.577E-14   -.186E+01 0.186E+01 0.203E-18   0.474E-04 -.474E-04 -.131E-12
   -.943E+01 -.943E+01 -.260E-06   0.937E+01 0.937E+01 -.160E-13   0.592E-01 0.592E-01 -.217E-18   -.514E-04 -.514E-04 0.121E-12
   -.308E+02 -.308E+02 -.185E-05   0.327E+02 0.327E+02 0.266E-13   -.186E+01 -.186E+01 0.000E+00   0.474E-04 0.474E-04 -.129E-12
   0.575E-12 -.560E-11 0.258E-11   0.384E-13 0.495E-15 0.219E-13   0.808E-27 0.000E+00 0.129E-25   0.553E-13 0.257E-13 -.758E-12
   0.108E-11 -.815E-11 -.337E-11   0.285E-14 -.137E-13 -.633E-14   0.222E-15 0.222E-15 0.222E-15   -.863E-13 0.107E-12 -.146E-12

 POSITION                                       TOTAL-FORCE (eV/Angst)
      0.00000     -0.00000      0.15500         0.000000     -0.000000     -0.000094
      0.00000     -0.00000      3.99514         0.000000      0.000000      0.000094
      0.00000      2.92923     -0.03729         0.000000     -0.000000     -0.007464
      0.00000      2.92923      4.18743         0.000000      0.000000      0.007464
      2.92923     -0.00000     -0.03729         0.000000     -0.000000     -0.007464
      2.92923     -0.00000      4.18743         0.000000      0.000000      0.007464
      2.92923      2.92923      0.38499         0.000000     -0.000000     -0.001913
      2.92923      2.92923      3.76515         0.000000      0.000000      0.001913
      1.42176      1.42176      2.07507         0.000441      0.000441      0.000000
      1.25322      1.25322      6.22521        -0.000131     -0.000131      0.000000
      1.42176      4.43669      2.07507         0.000441     -0.000441      0.000000
      1.25322      4.60523      6.22521        -0.000131      0.000131      0.000000
      4.43669      1.42176      2.07507        -0.000441      0.000441      0.000000
      4.60523      1.25322      6.22521         0.000131     -0.000131      0.000000
      4.43669      4.43669      2.07507        -0.000441     -0.000441      0.000000
      4.60523      4.60523      6.22521         0.000131      0.000131      0.000000
      2.92923      2.92923      6.22521         0.000000     -0.000000      0.000000
    total drift:                                0.000000     -0.000000     -0.000000

  FREE ENERGIE OF THE ION-ELECTRON SYSTEM (eV)
  free  energy   TOTEN  =       -98.62932984 eV

  energy  without entropy=      -98.55833448  energy(sigma->0) =      -98.59383216
 d Force =-0.9186706E-05[-0.805E-04, 0.622E-04]  d Energy = 0.2379061E-03-0.247E-03
 d Force = 0.3398261E+00[ 0.335E+00, 0.345E+00]  d Ewald  = 0.6506840E+01-0.617E+01

 Quasi-Newton relaxation of ions (Broydens 2nd method)
  g(Force)  = 0.112E-04   g(Stress)= 0.548E-05

 retain information from N=  1 steps
 eigenvalues of (default step * inverse Hessian matrix)
  average eigenvalue of G=   0.6222
 eigenvalue spectrum of G is  0.6222

 reached required accuracy - stopping structural energy minimisation
 writing wavefunctions