 vasp.6.5.0 16Dec24 (build Apr 17 2025 17:55:45) complex

 executed on             LinuxIFC date 2025.06.04  10:15:35

 INCAR:
   ISTART = 0
   ICHARG = 2
   PREC = N
   LREAL = .FALSE.
   ENCUT = 520
   ALGO = N
   NELM = 500
   EDIFF = 1E-05
   IBRION = -1
   ISIF = 3
   NSW = 0
   EDIFFG = -0.01
   ISMEAR = 1
   SIGMA = 0.1

 POTCAR:    PAW_PBE Ti_sv 26Sep2005
 POTCAR:    PAW_PBE Ga_d 06Jul2010
 POTCAR:    PAW_PBE Al 04Jan2001
|           W    W    AA    RRRRR   N    N  II  N    N   GGGG   !!!           |
|           W    W   A  A   R    R  NN   N  II  NN   N  G    G  !!!           |
|           W    W  A    A  R    R  N N  N  II  N N  N  G       !!!           |
|           W WW W  AAAAAA  RRRRR   N  N N  II  N  N N  G  GGG   !            |
|           WW  WW  A    A  R   R   N   NN  II  N   NN  G    G                |
|           W    W  A    A  R    R  N    N  II  N    N   GGGG   !!!           |
|     For optimal performance we recommend to set                             |
|       NCORE = 2 up to number-of-cores-per-socket                            |
|     This setting can greatly improve the performance of VASP for DFT.       |
|     The default, NCORE=1 might be grossly inefficient on modern             |
|     multi-core architectures or massively parallel machines. Do your        |
|     Unfortunately you need to use the default for GW and RPA                |
|     calculations (for HF NCORE is supported but not extensively tested      |
|     yet).                                                                   |

   TITEL  = PAW_PBE Ti_sv 26Sep2005
   POMASS =   47.880; ZVAL   =   12.000    mass and valenz
   ENMAX  =  274.610; ENMIN  =  205.957 eV

   TITEL  = PAW_PBE Ga_d 06Jul2010
   POMASS =   69.723; ZVAL   =   13.000    mass and valenz
   ENMAX  =  282.691; ENMIN  =  212.018 eV

   TITEL  = PAW_PBE Al 04Jan2001
   POMASS =   26.981; ZVAL   =    3.000    mass and valenz
   ENMAX  =  240.300; ENMIN  =  180.225 eV

  PAW_PBE Ti_sv 26Sep2005               :
  PAW_PBE Ga_d 06Jul2010                :
  PAW_PBE Al 04Jan2001                  :

 POSCAR: Ti1 Al1
  positions in direct lattice
  velocities in cartesian coordinates

 exchange-correlation table for PE
   RHO(1)=    0.500       N(1)  =     2000
   RHO(2)=  100.500       N(2)  =     4000

 ion  position               nearest neighbor table
   1  0.000  0.000  0.001-   3 2.82   5 2.82   3 2.82   5 2.82   9 2.84  11 2.84  13 2.84  15 2.84
                            10 2.85  14 2.85  12 2.85  16 2.85
   2  0.000  0.000  0.499-   4 2.82   6 2.82   4 2.82   6 2.82   9 2.84  11 2.84  13 2.84  15 2.84
                            10 2.85  14 2.85  12 2.85  16 2.85
   3  0.000  0.500  0.001-   1 2.82   7 2.82   1 2.82   7 2.82   9 2.84  13 2.84  11 2.84  15 2.84
                            10 2.85  12 2.85  14 2.85  16 2.85
   4  0.000  0.500  0.499-   2 2.82   8 2.82   2 2.82   8 2.82   9 2.84  13 2.84  11 2.84  15 2.84
                            10 2.85  12 2.85  14 2.85  16 2.85
   5  0.500  0.000  0.001-   1 2.82   7 2.82   1 2.82   7 2.82   9 2.84  13 2.84  11 2.84  15 2.84
                            10 2.85  12 2.85  14 2.85  16 2.85
   6  0.500  0.000  0.499-   2 2.82   8 2.82   2 2.82   8 2.82   9 2.84  13 2.84  11 2.84  15 2.84
                            10 2.85  12 2.85  14 2.85  16 2.85
   7  0.500  0.500  0.001-   3 2.82   5 2.82   3 2.82   5 2.82   9 2.84  11 2.84  13 2.84  15 2.84
                            10 2.85  14 2.85  12 2.85  16 2.85
   8  0.500  0.500  0.499-   4 2.82   6 2.82   4 2.82   6 2.82   9 2.84  11 2.84  13 2.84  15 2.84
                            10 2.85  14 2.85  12 2.85  16 2.85
   9  0.250  0.250  0.250-  11 2.82  13 2.82  11 2.82  13 2.82   5 2.84   6 2.84   7 2.84   8 2.84
                             1 2.84   2 2.84   3 2.84   4 2.84
  10  0.250  0.250  0.750-  12 2.82  14 2.82  12 2.82  14 2.82   5 2.85   6 2.85   7 2.85   8 2.85
                             1 2.85   2 2.85   3 2.85   4 2.85
  11  0.250  0.750  0.250-   9 2.82  15 2.82   9 2.82  15 2.82   5 2.84   6 2.84   7 2.84   8 2.84
                             1 2.84   2 2.84   3 2.84   4 2.84
  12  0.250  0.750  0.750-  10 2.82  16 2.82  10 2.82  16 2.82   5 2.85   6 2.85   7 2.85   8 2.85
                             1 2.85   2 2.85   3 2.85   4 2.85
  13  0.750  0.250  0.250-   9 2.82  15 2.82  15 2.82   9 2.82   5 2.84   6 2.84   7 2.84   8 2.84
                             1 2.84   2 2.84   3 2.84   4 2.84
  14  0.750  0.250  0.750-  10 2.82  16 2.82  16 2.82  10 2.82   5 2.85   6 2.85   7 2.85   8 2.85
                             1 2.85   2 2.85   3 2.85   4 2.85
  15  0.750  0.750  0.250-  11 2.82  13 2.82  13 2.82  11 2.82   5 2.84   6 2.84   7 2.84   8 2.84
                             1 2.84   2 2.84   3 2.84   4 2.84
  16  0.750  0.750  0.750-  12 2.82  14 2.82  14 2.82  12 2.82   5 2.85   6 2.85   7 2.85   8 2.85
                             1 2.85   2 2.85   3 2.85   4 2.85

  LATTYP: Found a simple tetragonal cell.
 ALAT       =     5.6452860611
 C/A-ratio  =     1.4365937127

  Lattice vectors:

 A1 = (   5.6452860611,   0.0000000000,   0.0000000000)
 A2 = (   0.0000000000,   5.6452860611,   0.0000000000)
 A3 = (   0.0000000000,   0.0000000000,   8.1099824619)

Analysis of symmetry for initial positions (statically):
 Subroutine PRICEL returns:
 Original cell was already a primitive cell.

 Routine SETGRP: Setting up the symmetry group for a
 simple tetragonal supercell.

 Subroutine GETGRP returns: Found 16 space group operations
 (whereof  2 operations were pure point group operations)
 out of a pool of 16 trial point group operations.

The static configuration has the point symmetry C_1h.
 The point group associated with its full space group is D_4h.

Analysis of symmetry for dynamics (positions and initial velocities):
 Subroutine PRICEL returns:
 Original cell was already a primitive cell.

 Routine SETGRP: Setting up the symmetry group for a
 simple tetragonal supercell.

 Subroutine GETGRP returns: Found 16 space group operations
 (whereof  2 operations were pure point group operations)
 out of a pool of 16 trial point group operations.

The dynamic configuration has the point symmetry C_1h.
 The point group associated with its full space group is D_4h.

 Subroutine INISYM returns: Found 16 space group operations
 (whereof  2 operations are pure point group operations),
 and found     1 'primitive' translations

                                     Primitive cell

  volume of cell :     258.4591

  direct lattice vectors                    reciprocal lattice vectors
     5.645286061  0.000000000  0.000000000     0.177138942  0.000000000  0.000000000
     0.000000000  5.645286061  0.000000000     0.000000000  0.177138942  0.000000000
     0.000000000  0.000000000  8.109982462     0.000000000  0.000000000  0.123304829

  length of vectors
     5.645286061  5.645286061  8.109982462     0.177138942  0.177138942  0.123304829

  position of ions in fractional coordinates (direct lattice)
     0.000197156  0.000197156  0.000617192
     0.000197156  0.000197156  0.499382808
     0.000197156  0.499802844  0.000617192
     0.000197156  0.499802844  0.499382808
     0.499802844  0.000197156  0.000617192
     0.499802844  0.000197156  0.499382808
     0.499802844  0.499802844  0.000617192
     0.499802844  0.499802844  0.499382808
     0.250000000  0.250000000  0.250000000
     0.250000000  0.250000000  0.750000000
     0.250000000  0.750000000  0.250000000
     0.250000000  0.750000000  0.750000000
     0.750000000  0.250000000  0.250000000
     0.750000000  0.250000000  0.750000000
     0.750000000  0.750000000  0.250000000
     0.750000000  0.750000000  0.750000000

  ion indices of the primitive-cell ions
   primitive index   ion index
                 1           1
                 2           2
                 3           3
                 4           4
                 5           5
                 6           6
                 7           7
                 8           8
                 9           9
                10          10
                11          11
                12          12
                13          13
                14          14
                15          15
                16          16

 KPOINTS: K-Spacing Value to Generate K-Mesh: 0.03

Automatic generation of k-mesh.
 Grid dimensions read from file:
 generate k-points for:    6    6    4

 Generating k-lattice:

  Cartesian coordinates                     Fractional coordinates (reciprocal lattice)
     0.029523157  0.000000000  0.000000000     0.166666667  0.000000000  0.000000000
     0.000000000  0.029523157  0.000000000     0.000000000  0.166666667  0.000000000
     0.000000000  0.000000000  0.030826207     0.000000000  0.000000000  0.250000000

  Length of vectors
     0.029523157  0.029523157  0.030826207

  Shift w.r.t. Gamma in fractional coordinates (k-lattice)
     0.000000000  0.000000000  0.000000000

 Subroutine IBZKPT returns following result:

 Found     30 irreducible k-points:

 Following reciprocal coordinates:
            Coordinates               Weight
  0.000000  0.000000  0.000000      1.000000
  0.166667  0.000000  0.000000      4.000000
  0.333333  0.000000  0.000000      4.000000
  0.500000  0.000000  0.000000      2.000000
  0.166667  0.166667  0.000000      4.000000
  0.333333  0.166667  0.000000      8.000000
  0.500000  0.166667  0.000000      4.000000
  0.333333  0.333333  0.000000      4.000000
  0.500000  0.333333  0.000000      4.000000
  0.500000  0.500000  0.000000      1.000000
  0.000000  0.000000  0.250000      2.000000
  0.166667  0.000000  0.250000      8.000000
  0.333333  0.000000  0.250000      8.000000
  0.500000  0.000000  0.250000      4.000000
  0.166667  0.166667  0.250000      8.000000
  0.333333  0.166667  0.250000     16.000000
  0.500000  0.166667  0.250000      8.000000
  0.333333  0.333333  0.250000      8.000000
  0.500000  0.333333  0.250000      8.000000
  0.500000  0.500000  0.250000      2.000000
  0.000000  0.000000  0.500000      1.000000
  0.166667  0.000000  0.500000      4.000000
  0.333333  0.000000  0.500000      4.000000
  0.500000  0.000000  0.500000      2.000000
  0.166667  0.166667  0.500000      4.000000
  0.333333  0.166667  0.500000      8.000000
  0.500000  0.166667  0.500000      4.000000
  0.333333  0.333333  0.500000      4.000000
  0.500000  0.333333  0.500000      4.000000
  0.500000  0.500000  0.500000      1.000000

 Following cartesian coordinates:
            Coordinates               Weight
  0.000000  0.000000  0.000000      1.000000
  0.029523  0.000000  0.000000      4.000000
  0.059046  0.000000  0.000000      4.000000
  0.088569  0.000000  0.000000      2.000000
  0.029523  0.029523  0.000000      4.000000
  0.059046  0.029523  0.000000      8.000000
  0.088569  0.029523  0.000000      4.000000
  0.059046  0.059046  0.000000      4.000000
  0.088569  0.059046  0.000000      4.000000
  0.088569  0.088569  0.000000      1.000000
  0.000000  0.000000  0.030826      2.000000
  0.029523  0.000000  0.030826      8.000000
  0.059046  0.000000  0.030826      8.000000
  0.088569  0.000000  0.030826      4.000000
[...]
 k-point    15 :   0.1667 0.1667 0.2500  plane waves:    6973
 k-point    16 :   0.3333 0.1667 0.2500  plane waves:    6956
 k-point    17 :   0.5000 0.1667 0.2500  plane waves:    6960
 k-point    18 :   0.3333 0.3333 0.2500  plane waves:    6968
 k-point    19 :   0.5000 0.3333 0.2500  plane waves:    6940
 k-point    20 :   0.5000 0.5000 0.2500  plane waves:    6936
 k-point    21 :   0.0000 0.0000 0.5000  plane waves:    7014
 k-point    22 :   0.1667 0.0000 0.5000  plane waves:    6960
 k-point    23 :   0.3333 0.0000 0.5000  plane waves:    6966
 k-point    24 :   0.5000 0.0000 0.5000  plane waves:    6968
 k-point    25 :   0.1667 0.1667 0.5000  plane waves:    6964
 k-point    26 :   0.3333 0.1667 0.5000  plane waves:    6950
 k-point    27 :   0.5000 0.1667 0.5000  plane waves:    6952
 k-point    28 :   0.3333 0.3333 0.5000  plane waves:    6974
 k-point    29 :   0.5000 0.3333 0.5000  plane waves:    6968
 k-point    30 :   0.5000 0.5000 0.5000  plane waves:    6912

 maximum and minimum number of plane-waves per node :      7014     6892

 maximum number of plane-waves:      7014
 maximum index in each direction:
   IXMAX=   10   IYMAX=   10   IZMAX=   15
   IXMIN=  -10   IYMIN=  -10   IZMIN=  -15

 serial   3D FFT for wavefunctions
 parallel 3D FFT for charge:
    minimum data exchange during FFTs selected (reduces bandwidth)

 Broyden mixing: mesh for mixing (old mesh)
   NGX = 21   NGY = 21   NGZ = 31
  (NGX  = 64   NGY  = 64   NGZ  = 96)
  gives a total of  13671 points

 initial charge density was supplied:
 charge density of overlapping atoms calculated
 number of electron     130.0000000 magnetization
 keeping initial charge density in first step

 Maximum index for augmentation-charges          454 (set IRDMAX)

 First call to EWALD:  gamma=   0.278
 Maximum number of real-space cells   3x   3x   2
 Maximum number of reciprocal cells   3x   3x   3

--------------------------------------- Ionic step        1  -------------------------------------------

--------------------------------------- Iteration      1(   1)  ---------------------------------------

 eigenvalue-minimisations  :  7680
 total energy-change (2. order) : 0.9689267E+03  (-0.6333637E+04)
 number of electron     130.0000000 magnetization
 augmentation part      130.0000000 magnetization

 Free energy of the ion-electron system (eV)
  alpha Z        PSCENC =       381.68433306
  Ewald energy   TEWEN  =     -9869.40651717
  -Hartree energ DENC   =     -4782.87171197
  -exchange      EXHF   =         0.00000000
  -V(xc)+E(xc)   XCENC  =       358.12270575
  PAW double counting   =     12183.07835080   -12136.27052386
  entropy T*S    EENTRO =         0.00175005
  eigenvalues    EBANDS =      -393.68794771
  atomic energy  EATOM  =     15228.27630495
  Solvation  Ediel_sol  =         0.00000000
  free energy    TOTEN  =       968.92674390 eV

  energy without entropy =      968.92499384  energy(sigma->0) =      968.92616055

[...]

 eigenvalue-minimisations  :  7808
 total energy-change (2. order) :-0.9986061E+03  (-0.9583462E+03)
 number of electron     130.0000000 magnetization
 augmentation part      130.0000000 magnetization

[...]

 Broyden mixing:
  rms(total) = 0.27212E+01    rms(broyden)= 0.27211E+01
  rms(prec ) = 0.37181E+01
  weight for this iteration     100.00

[...]

 eigenvalues of (default mixing * dielectric matrix)
  average eigenvalue GAMMA=   0.8555
  0.8555

[...]

 eigenvalue-minimisations  :  8832
 total energy-change (2. order) :-0.1232229E-04  (-0.2235798E-04)
 number of electron     129.9999750 magnetization
 augmentation part       37.8984632 magnetization

 Broyden mixing:
  rms(total) = 0.28977E-02    rms(broyden)= 0.28966E-02
  rms(prec ) = 0.31309E-02
  weight for this iteration     100.00

 eigenvalues of (default mixing * dielectric matrix)
  average eigenvalue GAMMA=   1.5391
  2.8836  2.3517  1.7658  0.6773  1.1023  1.1023  0.8910

[...]

--------------------------------------- Iteration      1(  13)  ---------------------------------------

 eigenvalue-minimisations  :  9600
 total energy-change (2. order) : 0.6199167E-05  (-0.8650345E-06)
 number of electron     129.9999750 magnetization
 augmentation part       37.8984632 magnetization

 Free energy of the ion-electron system (eV)
  alpha Z        PSCENC =       381.68433306
  Ewald energy   TEWEN  =     -9869.40651717
  -Hartree energ DENC   =     -4556.25806973
  -exchange      EXHF   =         0.00000000
  -V(xc)+E(xc)   XCENC  =       349.48559990
  PAW double counting   =     14887.45760662   -14815.30433378
  entropy T*S    EENTRO =         0.00325982
  eigenvalues    EBANDS =     -1704.36888887
  atomic energy  EATOM  =     15228.27630495
  Solvation  Ediel_sol  =         0.00000000
  free energy    TOTEN  =       -98.43070521 eV

  energy without entropy =      -98.43396503  energy(sigma->0) =      -98.43179182

 average (electrostatic) potential at core
  the test charge radii are     1.0397  1.0314  1.0406
  (the norm of the test charge is              1.0000)
       1 -72.3268       2 -72.3268       3 -72.3268       4 -72.3268       5 -72.3268
       6 -72.3268       7 -72.3268       8 -72.3268       9 -61.6145      10 -71.3204
      11 -71.4150      12 -71.3236      13 -71.4150      14 -71.3236      15 -71.3099
      16 -71.3374

 E-fermi :   8.2970     XC(G=0): -11.1518     alpha+bet :-16.1915

 val. band max:        8.2887365852   @ k =   0.5000   0.5000   0.5000
 cond. band min:       8.3148579297   @ k =   0.5000   0.3333   0.2500
 fundamental gap:      0.0261213444
 Fermi energy:         8.2969575243

 k-point     1 :       0.0000    0.0000    0.0000
  band No.  band energies     occupation
      1     -48.3374      2.00000
      2     -48.3368      2.00000
      3     -48.2793      2.00000
      4     -48.2793      2.00000
      5     -48.2788      2.00000
      6     -48.2788      2.00000
      7     -48.2233      2.00000
      8     -48.2228      2.00000
      9     -24.7704      2.00000
     10     -24.7668      2.00000
     11     -24.7581      2.00000
     12     -24.7554      2.00000
     13     -24.7533      2.00000
     14     -24.7363      2.00000
     15     -24.6979      2.00000
     16     -24.6979      2.00000
     17     -24.6952      2.00000
     18     -24.6952      2.00000
     19     -24.6901      2.00000
     20     -24.6901      2.00000
     21     -24.6787      2.00000
     22     -24.6787      2.00000
     23     -24.6370      2.00000
     24     -24.6261      2.00000
     25     -24.2878      2.00000
     26     -24.2878      2.00000
     27     -24.2872      2.00000
     28     -24.2872      2.00000
     29     -24.2514      2.00000
     30     -24.2507      2.00000
     31     -24.2405      2.00000
     32     -24.2399      2.00000
     33      -6.1308      2.00000
     34      -6.1153      2.00000
     35      -6.0929      2.00000
     36      -6.0929      2.00000
     37      -6.0605      2.00000
     38      -0.9049      2.00000
     39       0.5714      2.00000
     40       2.9181      2.00000
     41       3.0206      2.00000
     42       3.4289      2.00000
     43       3.6084      2.00000
     44       3.7458      2.00000
     45       3.7458      2.00000
     46       3.7833      2.00000
     47       5.0662      2.00000
     48       5.3470      2.00000
     49       5.3470      2.00000
     50       5.7677      2.00000
     51       6.0064      2.00000
     52       6.0064      2.00000
     53       6.4767      2.00000
     54       6.5805      2.00000
     55       6.6022      2.00000
     56       7.1165      2.00000
     57       7.1469      2.00000
     58       7.1474      2.00000
     59       7.1474      2.00000
     60       7.4718      2.00000
[...]
    114      16.6258      0.00000
    115      16.6258      0.00000
    116      17.8279      0.00000
    117      17.9512      0.00000
    118      18.6678      0.00000
    119      18.6678      0.00000
    120      19.0171      0.00000
    121      19.0171      0.00000
    122      19.4093      0.00000
    123      19.4093      0.00000
    124      19.9658      0.00000
    125      20.5196      0.00000
    126      20.5196      0.00000
    127      20.6872      0.00000
    128      20.6872      0.00000

[...]

 k-point    30 :       0.5000    0.5000    0.5000
  band No.  band energies     occupation
      1     -48.2804      2.00000
      2     -48.2803      2.00000
      3     -48.2798      2.00000
      4     -48.2798      2.00000
      5     -48.2798      2.00000
      6     -48.2798      2.00000
      7     -48.2792      2.00000
      8     -48.2792      2.00000
      9     -24.6885      2.00000
     10     -24.6878      2.00000
     11     -24.6878      2.00000
     12     -24.6878      2.00000
     13     -24.6874      2.00000
     14     -24.6874      2.00000
     15     -24.6873      2.00000
     16     -24.6870      2.00000
     17     -24.5153      2.00000
     18     -24.5152      2.00000
     19     -24.5112      2.00000
     20     -24.5110      2.00000
     21     -24.5032      2.00000
     22     -24.5032      2.00000
     23     -24.5031      2.00000
     24     -24.5031      2.00000
     25     -24.4983      2.00000
     26     -24.4983      2.00000
     27     -24.4983      2.00000
     28     -24.4983      2.00000
     29     -24.4904      2.00000
     30     -24.4904      2.00000
     31     -24.4862      2.00000
     32     -24.4862      2.00000
     33      -6.1253      2.00000
     34      -6.1164      2.00000
     35      -6.0931      2.00000
     36      -6.0931      2.00000
     37      -6.0580      2.00000
     38       1.0609      2.00000
     39       1.9336      2.00000
     40       1.9336      2.00000
     41       1.9849      2.00000
     42       1.9897      2.00000
     43       1.9903      2.00000
     44       1.9928      2.00000
     45       1.9928      2.00000
     46       6.1245      2.00000
     47       6.2226      2.00000
     48       6.2226      2.00000
     49       6.2269      2.00000
     50       6.2272      2.00000
     51       6.2347      2.00000
     52       6.2435      2.00000
     53       6.2435      2.00000
     54       7.8254      2.00000
     55       7.8254      2.00000
     56       7.8737      2.00000
     57       7.9027      2.00000
     58       7.9068      2.00000
     59       7.9068      2.00000
     60       7.9092      2.00000
[...]
    114      17.5081      0.00000
    115      17.5166      0.00000
    116      17.6405      0.00000
    117      18.0408      0.00000
    118      18.6497      0.00000
    119      18.7002      0.00000
    120      18.7002      0.00000
    121      18.7079      0.00000
    122      18.7205      0.00000
    123      18.7483      0.00000
    124      18.7483      0.00000
    125      18.7934      0.00000
    126      18.7967      0.00000
    127      18.8029      0.00000
    128      18.8182      0.00000

 soft charge-density along one line, spin component           1
         0         1         2         3         4         5         6         7         8         9
 total charge-density along one line

------------------------ aborting loop because EDIFF is reached ----------------------------------------

  FORCE on cell =-STRESS in cart. coord.  units (eV):
  Direction    XX          YY          ZZ          XY          YZ          ZX
  Alpha Z   381.68433   381.68433   381.68433
  Ewald   -2823.08816 -2823.08816 -4223.25302     0.00000     0.00000     0.00000
  Hartree  1931.62255  1931.62255   693.30019    -0.00000    -0.00000    -0.00000
  E(xc)    -646.54207  -646.54207  -648.18645     0.00000    -0.00000     0.00000
  Local    -923.01201  -923.01201  1754.04850    -0.00000    -0.00000    -0.00000
  n-local  -121.21850  -158.14851   -83.36934    -3.53610     0.68981     1.70278
  augment   618.34751   618.34751   595.49229    -0.00000    -0.00000     0.00000
  Kinetic  1581.10607  1620.27391  1530.28569     1.77224    -2.22181    -2.12702
  Fock        0.00000     0.00000     0.00000     0.00000     0.00000     0.00000
  Total       0.01864     0.01864     0.00219     0.00000    -0.00000     0.00000
  in kB       0.11553     0.11553     0.01355     0.00000    -0.00000     0.00000

 VOLUME and BASIS-vectors are now :
  energy-cutoff  :      520.00
  volume of cell :      258.46
      direct lattice vectors                 reciprocal lattice vectors
     5.645286061  0.000000000  0.000000000     0.177138942  0.000000000  0.000000000
     0.000000000  5.645286061  0.000000000     0.000000000  0.177138942  0.000000000
     0.000000000  0.000000000  8.109982462     0.000000000  0.000000000  0.123304829

  length of vectors
     5.645286061  5.645286061  8.109982462     0.177138942  0.177138942  0.123304829

 FORCES acting on ions
    electron-ion (+dipol)            ewald-force                    non-local-force                 convergence-correction
   0.692E+02 0.692E+02 0.163E+03   -.694E+02 -.694E+02 -.163E+03   0.172E+00 0.172E+00 0.198E+00   0.150E-02 0.150E-02 0.160E-02
   0.692E+02 0.692E+02 -.163E+03   -.694E+02 -.694E+02 0.163E+03   0.172E+00 0.172E+00 -.198E+00   0.150E-02 0.150E-02 -.160E-02
   0.692E+02 -.692E+02 0.163E+03   -.694E+02 0.694E+02 -.163E+03   0.172E+00 -.172E+00 0.198E+00   0.150E-02 -.150E-02 0.160E-02
   0.692E+02 -.692E+02 -.163E+03   -.694E+02 0.694E+02 0.163E+03   0.172E+00 -.172E+00 -.198E+00   0.150E-02 -.150E-02 -.160E-02
   -.692E+02 0.692E+02 0.163E+03   0.694E+02 -.694E+02 -.163E+03   -.172E+00 0.172E+00 0.198E+00   -.150E-02 0.150E-02 0.160E-02
   -.692E+02 0.692E+02 -.163E+03   0.694E+02 -.694E+02 0.163E+03   -.172E+00 0.172E+00 -.198E+00   -.150E-02 0.150E-02 -.160E-02
   -.692E+02 -.692E+02 0.163E+03   0.694E+02 0.694E+02 -.163E+03   -.172E+00 -.172E+00 0.198E+00   -.150E-02 -.150E-02 0.160E-02
   -.692E+02 -.692E+02 -.163E+03   0.694E+02 0.694E+02 0.163E+03   -.172E+00 -.172E+00 -.198E+00   -.150E-02 -.150E-02 -.160E-02
   0.188E-12 0.104E-11 -.148E-11   0.127E-12 -.169E-13 0.257E-13   0.199E-22 0.331E-23 0.000E+00   0.684E-13 0.144E-12 0.245E-12
   0.783E-14 -.573E-12 0.643E-13   0.392E-13 0.406E-14 0.296E-14   0.199E-22 0.331E-23 0.000E+00   -.293E-14 0.720E-14 -.448E-13
   0.147E-13 -.644E-13 -.530E-12   -.815E-14 0.515E-15 0.690E-14   0.662E-23 0.000E+00 0.331E-23   0.195E-14 -.107E-13 0.407E-13
   0.101E-13 0.857E-12 0.280E-12   0.155E-13 0.206E-13 -.578E-14   0.000E+00 -.165E-23 0.000E+00   -.780E-15 -.723E-14 -.432E-13
   -.253E-13 0.596E-12 0.236E-12   -.483E-14 -.439E-14 0.228E-13   0.372E-23 -.331E-23 -.331E-23   -.261E-14 0.998E-14 0.456E-13
   0.246E-14 -.142E-12 0.624E-12   0.161E-13 0.347E-14 0.101E-13   0.000E+00 0.000E+00 -.137E-23   0.354E-14 0.550E-14 -.462E-13
   0.272E-16 0.448E-12 -.145E-12   0.393E-13 0.278E-13 -.169E-13   0.331E-23 0.132E-22 0.000E+00   -.167E-14 -.102E-13 0.419E-13
   -.242E-14 0.465E-12 0.254E-12   0.117E-13 0.411E-14 0.177E-13   0.000E+00 0.000E+00 0.000E+00   0.132E-14 -.577E-14 -.429E-13
   -.188E-11 -.518E-11 0.482E-10   -.344E-13 -.176E-13 0.350E-13   -.111E-15 0.278E-16 0.833E-16   0.930E-13 0.923E-13 0.289E-12

 POSITION                                       TOTAL-FORCE (eV/Angst)
      0.00111      0.00111      0.00501         0.000252      0.000252      0.007041
      0.00111      0.00111      4.04999         0.000252      0.000252     -0.007041
      0.00111      2.82153      0.00501         0.000252     -0.000252      0.007041
      0.00111      2.82153      4.04999         0.000252     -0.000252     -0.007041
      2.82153      0.00111      0.00501        -0.000252      0.000252      0.007041
      2.82153      0.00111      4.04999        -0.000252      0.000252     -0.007041
      2.82153      2.82153      0.00501        -0.000252     -0.000252      0.007041
      2.82153      2.82153      4.04999        -0.000252     -0.000252     -0.007041
      1.41132      1.41132      2.02750        -0.000000      0.000000     -0.000000
      1.41132      1.41132      6.08249        -0.000000     -0.000000     -0.000000
      1.41132      4.23396      2.02750        -0.000000      0.000000     -0.000000
      1.41132      4.23396      6.08249        -0.000000     -0.000000     -0.000000
      4.23396      1.41132      2.02750        -0.000000     -0.000000     -0.000000
      4.23396      1.41132      6.08249        -0.000000     -0.000000     -0.000000
      4.23396      4.23396      2.02750        -0.000000      0.000000     -0.000000
      4.23396      4.23396      6.08249        -0.000000     -0.000000     -0.000000
    total drift:                               -0.000000     -0.000000      0.000000

  FREE ENERGIE OF THE ION-ELECTRON SYSTEM (eV)
  free  energy   TOTEN  =       -98.43070521 eV

  energy  without entropy=      -98.43396503  energy(sigma->0) =      -98.43179182

 writing wavefunctions