 vasp.6.5.0 16Dec24 (build Apr 17 2025 17:55:45) complex

 executed on             LinuxIFC date 2025.06.03  18:32:53

 INCAR:
   SYSTEM = CaNi2
   ISTART = 0
   ICHARG = 2
   PREC = N
   LREAL = .FALSE.
   ENCUT = 520
   ALGO = N
   NELM = 500
   EDIFF = 1E-05
   IBRION = 1
   ISIF = 3
   NSW = 300
   EDIFFG = -0.01
   ISMEAR = 0
   SIGMA = 0.1

 POTCAR:    PAW_PBE Ga_d 06Jul2010
 POTCAR:    PAW_PBE Ti_sv 26Sep2005
 POTCAR:    PAW_PBE Al 04Jan2001
|           W    W    AA    RRRRR   N    N  II  N    N   GGGG   !!!           |
|           W    W   A  A   R    R  NN   N  II  NN   N  G    G  !!!           |
|           W    W  A    A  R    R  N N  N  II  N N  N  G       !!!           |
|           W WW W  AAAAAA  RRRRR   N  N N  II  N  N N  G  GGG   !            |
|           WW  WW  A    A  R   R   N   NN  II  N   NN  G    G                |
|           W    W  A    A  R    R  N    N  II  N    N   GGGG   !!!           |
|     For optimal performance we recommend to set                             |
|       NCORE = 2 up to number-of-cores-per-socket                            |
|     This setting can greatly improve the performance of VASP for DFT.       |
|     The default, NCORE=1 might be grossly inefficient on modern             |
|     multi-core architectures or massively parallel machines. Do your        |
|     Unfortunately you need to use the default for GW and RPA                |
|     calculations (for HF NCORE is supported but not extensively tested      |
|     yet).                                                                   |

   TITEL  = PAW_PBE Ga_d 06Jul2010
   POMASS =   69.723; ZVAL   =   13.000    mass and valenz
   ENMAX  =  282.691; ENMIN  =  212.018 eV

   TITEL  = PAW_PBE Ti_sv 26Sep2005
   POMASS =   47.880; ZVAL   =   12.000    mass and valenz
   ENMAX  =  274.610; ENMIN  =  205.957 eV

   TITEL  = PAW_PBE Al 04Jan2001
   POMASS =   26.981; ZVAL   =    3.000    mass and valenz
   ENMAX  =  240.300; ENMIN  =  180.225 eV

  PAW_PBE Ga_d 06Jul2010                :
  PAW_PBE Ti_sv 26Sep2005               :
  PAW_PBE Al 04Jan2001                  :

 POSCAR: Ti1 Al1
  positions in direct lattice

 exchange-correlation table for PE
   RHO(1)=    0.500       N(1)  =     2000
   RHO(2)=  100.500       N(2)  =     4000

 ion  position               nearest neighbor table
   1  0.000  0.000  0.000-   3 2.82   5 2.82   3 2.82   5 2.82  11 2.85  12 2.85  13 2.85  14 2.85
                            15 2.85  16 2.85   9 2.85  10 2.85
   2  0.000  0.000  0.500-   4 2.82   6 2.82   4 2.82   6 2.82  11 2.85  12 2.85  13 2.85  14 2.85
                            15 2.85  16 2.85   9 2.85  10 2.85
   3  0.000  0.500  0.000-   1 2.82   7 2.82   1 2.82   7 2.82  11 2.85  12 2.85  13 2.85  14 2.85
                            15 2.85  16 2.85   9 2.85  10 2.85
   4  0.000  0.500  0.500-   2 2.82   8 2.82   2 2.82   8 2.82  11 2.85  12 2.85  13 2.85  14 2.85
                            15 2.85  16 2.85   9 2.85  10 2.85
   5  0.500  0.000  0.000-   1 2.82   7 2.82   7 2.82   1 2.82  11 2.85  12 2.85  13 2.85  14 2.85
                            15 2.85  16 2.85   9 2.85  10 2.85
   6  0.500  0.000  0.500-   2 2.82   8 2.82   8 2.82   2 2.82  11 2.85  12 2.85  13 2.85  14 2.85
                            15 2.85  16 2.85   9 2.85  10 2.85
   7  0.500  0.500  0.000-   3 2.82   5 2.82   5 2.82   3 2.82  11 2.85  12 2.85  13 2.85  14 2.85
                            15 2.85  16 2.85   9 2.85  10 2.85
   8  0.500  0.500  0.500-   4 2.82   6 2.82   6 2.82   4 2.82  11 2.85  12 2.85  13 2.85  14 2.85
                            15 2.85  16 2.85   9 2.85  10 2.85
   9  0.250  0.250  0.250-  11 2.82  13 2.82  11 2.82  13 2.82   5 2.85   6 2.85   7 2.85   8 2.85
                             1 2.85   2 2.85   3 2.85   4 2.85
  10  0.250  0.250  0.750-  12 2.82  14 2.82  12 2.82  14 2.82   5 2.85   6 2.85   7 2.85   8 2.85
                             1 2.85   2 2.85   3 2.85   4 2.85
  11  0.250  0.750  0.250-   9 2.82  15 2.82   9 2.82  15 2.82   5 2.85   6 2.85   7 2.85   8 2.85
                             1 2.85   2 2.85   3 2.85   4 2.85
  12  0.250  0.750  0.750-  10 2.82  16 2.82  10 2.82  16 2.82   5 2.85   6 2.85   7 2.85   8 2.85
                             1 2.85   2 2.85   3 2.85   4 2.85
  13  0.750  0.250  0.250-   9 2.82  15 2.82  15 2.82   9 2.82   5 2.85   6 2.85   7 2.85   8 2.85
                             1 2.85   2 2.85   3 2.85   4 2.85
  14  0.750  0.250  0.750-  10 2.82  16 2.82  16 2.82  10 2.82   5 2.85   6 2.85   7 2.85   8 2.85
                             1 2.85   2 2.85   3 2.85   4 2.85
  15  0.750  0.750  0.250-  11 2.82  13 2.82  13 2.82  11 2.82   5 2.85   6 2.85   7 2.85   8 2.85
                             1 2.85   2 2.85   3 2.85   4 2.85
  16  0.750  0.750  0.750-  12 2.82  14 2.82  14 2.82  12 2.82   5 2.85   6 2.85   7 2.85   8 2.85
                             1 2.85   2 2.85   3 2.85   4 2.85

  LATTYP: Found a simple tetragonal cell.
 ALAT       =     5.6476373672
 C/A-ratio  =     1.4414285973

  Lattice vectors:

 A1 = (   5.6476373672,   0.0000000000,   0.0000000000)
 A2 = (   0.0000000000,   5.6476373672,   0.0000000000)
 A3 = (   0.0000000000,   0.0000000000,   8.1406660080)

Analysis of symmetry for initial positions (statically):
 Subroutine PRICEL returns:
 Original cell was already a primitive cell.

 Routine SETGRP: Setting up the symmetry group for a
 simple tetragonal supercell.

 Subroutine GETGRP returns: Found 16 space group operations
 (whereof 16 operations were pure point group operations)
 out of a pool of 16 trial point group operations.

The static configuration has the point symmetry D_4h.

Analysis of symmetry for dynamics (positions and initial velocities):
 Subroutine PRICEL returns:
 Original cell was already a primitive cell.

 Routine SETGRP: Setting up the symmetry group for a
 simple tetragonal supercell.

 Subroutine GETGRP returns: Found 16 space group operations
 (whereof 16 operations were pure point group operations)
 out of a pool of 16 trial point group operations.

The dynamic configuration has the point symmetry D_4h.

 Subroutine INISYM returns: Found 16 space group operations
 (whereof 16 operations are pure point group operations),
 and found     1 'primitive' translations

                                     Primitive cell

  volume of cell :     259.6531

  direct lattice vectors                    reciprocal lattice vectors
     5.647637367  0.000000000  0.000000000     0.177065193  0.000000000  0.000000000
     0.000000000  5.647637367  0.000000000     0.000000000  0.177065193  0.000000000
     0.000000000  0.000000000  8.140666008     0.000000000  0.000000000  0.122840072

  length of vectors
     5.647637367  5.647637367  8.140666008     0.177065193  0.177065193  0.122840072

  position of ions in fractional coordinates (direct lattice)
     0.000000000  0.000000000  0.000000000
     0.000000000  0.000000000  0.500000000
     0.000000000  0.500000000  0.000000000
     0.000000000  0.500000000  0.500000000
     0.500000000  0.000000000  0.000000000
     0.500000000  0.000000000  0.500000000
     0.500000000  0.500000000  0.000000000
     0.500000000  0.500000000  0.500000000
     0.250000000  0.250000000  0.250000000
     0.250000000  0.250000000  0.750000000
     0.250000000  0.750000000  0.250000000
     0.250000000  0.750000000  0.750000000
     0.750000000  0.250000000  0.250000000
     0.750000000  0.250000000  0.750000000
     0.750000000  0.750000000  0.250000000
     0.750000000  0.750000000  0.750000000

  ion indices of the primitive-cell ions
   primitive index   ion index
                 1           1
                 2           2
                 3           3
                 4           4
                 5           5
                 6           6
                 7           7
                 8           8
                 9           9
                10          10
                11          11
                12          12
                13          13
                14          14
                15          15
                16          16

 KPOINTS: K-Spacing Value to Generate K-Mesh: 0.03

Automatic generation of k-mesh.
 Grid dimensions read from file:
 generate k-points for:    6    6    4

 Generating k-lattice:

  Cartesian coordinates                     Fractional coordinates (reciprocal lattice)
     0.029510865  0.000000000  0.000000000     0.166666667  0.000000000  0.000000000
     0.000000000  0.029510865  0.000000000     0.000000000  0.166666667  0.000000000
     0.000000000  0.000000000  0.030710018     0.000000000  0.000000000  0.250000000

  Length of vectors
     0.029510865  0.029510865  0.030710018

  Shift w.r.t. Gamma in fractional coordinates (k-lattice)
     0.000000000  0.000000000  0.000000000

 Subroutine IBZKPT returns following result:

 Found     30 irreducible k-points:

 Following reciprocal coordinates:
            Coordinates               Weight
  0.000000  0.000000  0.000000      1.000000
  0.166667  0.000000  0.000000      4.000000
  0.333333  0.000000  0.000000      4.000000
  0.500000  0.000000  0.000000      2.000000
  0.166667  0.166667  0.000000      4.000000
  0.333333  0.166667  0.000000      8.000000
  0.500000  0.166667  0.000000      4.000000
  0.333333  0.333333  0.000000      4.000000
  0.500000  0.333333  0.000000      4.000000
  0.500000  0.500000  0.000000      1.000000
  0.000000  0.000000  0.250000      2.000000
  0.166667  0.000000  0.250000      8.000000
  0.333333  0.000000  0.250000      8.000000
  0.500000  0.000000  0.250000      4.000000
  0.166667  0.166667  0.250000      8.000000
  0.333333  0.166667  0.250000     16.000000
  0.500000  0.166667  0.250000      8.000000
  0.333333  0.333333  0.250000      8.000000
  0.500000  0.333333  0.250000      8.000000
  0.500000  0.500000  0.250000      2.000000
  0.000000  0.000000  0.500000      1.000000
  0.166667  0.000000  0.500000      4.000000
  0.333333  0.000000  0.500000      4.000000
  0.500000  0.000000  0.500000      2.000000
  0.166667  0.166667  0.500000      4.000000
  0.333333  0.166667  0.500000      8.000000
  0.500000  0.166667  0.500000      4.000000
  0.333333  0.333333  0.500000      4.000000
  0.500000  0.333333  0.500000      4.000000
  0.500000  0.500000  0.500000      1.000000

 Following cartesian coordinates:
            Coordinates               Weight
  0.000000  0.000000  0.000000      1.000000
  0.029511  0.000000  0.000000      4.000000
  0.059022  0.000000  0.000000      4.000000
  0.088533  0.000000  0.000000      2.000000
  0.029511  0.029511  0.000000      4.000000
  0.059022  0.029511  0.000000      8.000000
  0.088533  0.029511  0.000000      4.000000
  0.059022  0.059022  0.000000      4.000000
  0.088533  0.059022  0.000000      4.000000
  0.088533  0.088533  0.000000      1.000000
  0.000000  0.000000  0.030710      2.000000
  0.029511  0.000000  0.030710      8.000000
  0.059022  0.000000  0.030710      8.000000
  0.088533  0.000000  0.030710      4.000000
  0.029511  0.029511  0.030710      8.000000
  0.059022  0.029511  0.030710     16.000000
  0.088533  0.029511  0.030710      8.000000
[...]
     5.647637367  0.000000000  0.000000000     0.177065193  0.000000000  0.000000000
     0.000000000  5.647637367  0.000000000     0.000000000  0.177065193  0.000000000
     0.000000000  0.000000000  8.140666008     0.000000000  0.000000000  0.122840072

[...]

 FORCES acting on ions
    electron-ion (+dipol)            ewald-force                    non-local-force                 convergence-correction
   0.106E-14 0.138E-13 -.608E-13   -.990E-14 -.573E-14 -.353E-13   0.000E+00 0.000E+00 0.000E+00   0.645E-13 -.168E-13 -.320E-12
   -.382E-14 -.162E-14 0.108E-11   0.263E-13 -.912E-14 0.195E-13   0.000E+00 0.000E+00 0.000E+00   0.247E-13 0.134E-13 0.320E-12
   -.782E-14 0.375E-12 -.391E-13   0.303E-13 -.217E-14 -.178E-13   0.000E+00 0.000E+00 0.000E+00   0.383E-13 0.359E-13 -.288E-12
   -.655E-14 0.390E-12 0.107E-11   0.303E-13 0.136E-13 0.195E-13   0.000E+00 0.000E+00 0.000E+00   0.302E-13 0.165E-13 0.288E-12
   0.382E-12 0.169E-14 -.684E-11   0.573E-14 -.155E-14 -.178E-13   0.000E+00 0.000E+00 0.000E+00   -.167E-13 -.392E-13 -.320E-12
   0.385E-12 0.957E-15 0.441E-11   -.217E-14 -.122E-14 0.195E-13   0.000E+00 0.000E+00 0.000E+00   0.223E-14 0.374E-14 0.306E-12
   0.392E-12 0.408E-12 -.203E-11   0.136E-13 0.967E-14 -.178E-13   0.000E+00 0.000E+00 0.000E+00   -.720E-14 0.658E-13 -.286E-12
   0.387E-12 0.426E-12 0.262E-11   -.217E-14 0.967E-14 0.195E-13   0.000E+00 0.000E+00 0.000E+00   0.123E-13 0.262E-13 0.308E-12
   -.124E+01 -.124E+01 -.292E+01   0.168E+01 0.168E+01 0.395E+01   -.400E+00 -.400E+00 -.888E+00   0.863E-03 0.863E-03 -.210E-02
   -.124E+01 -.124E+01 0.292E+01   0.168E+01 0.168E+01 -.395E+01   -.400E+00 -.400E+00 0.888E+00   0.863E-03 0.863E-03 0.210E-02
   -.124E+01 0.124E+01 -.292E+01   0.168E+01 -.168E+01 0.395E+01   -.400E+00 0.400E+00 -.888E+00   0.863E-03 -.863E-03 -.210E-02
   -.124E+01 0.124E+01 0.292E+01   0.168E+01 -.168E+01 -.395E+01   -.400E+00 0.400E+00 0.888E+00   0.863E-03 -.863E-03 0.210E-02
   0.124E+01 -.124E+01 -.292E+01   -.168E+01 0.168E+01 0.395E+01   0.400E+00 -.400E+00 -.888E+00   -.863E-03 0.863E-03 -.210E-02
   0.124E+01 -.124E+01 0.292E+01   -.168E+01 0.168E+01 -.395E+01   0.400E+00 -.400E+00 0.888E+00   -.863E-03 0.863E-03 0.210E-02
   0.124E+01 0.124E+01 -.292E+01   -.168E+01 -.168E+01 0.395E+01   0.400E+00 0.400E+00 -.888E+00   -.863E-03 -.863E-03 -.210E-02
   0.124E+01 0.124E+01 0.292E+01   -.168E+01 -.168E+01 -.395E+01   0.400E+00 0.400E+00 0.888E+00   -.863E-03 -.863E-03 0.210E-02
   0.130E-11 0.321E-11 0.884E-12   0.133E-13 0.422E-14 0.533E-14   -.333E-15 -.555E-16 0.111E-15   0.144E-12 0.106E-12 -.533E-14

 POSITION                                       TOTAL-FORCE (eV/Angst)
      0.00000      0.00000      0.00000        -0.000000     -0.000000      0.000000
      0.00000      0.00000      4.07033        -0.000000     -0.000000      0.000000
      0.00000      2.82382      0.00000        -0.000000     -0.000000      0.000000
      0.00000      2.82382      4.07033        -0.000000     -0.000000      0.000000
      2.82382      0.00000      0.00000        -0.000000     -0.000000      0.000000
      2.82382      0.00000      4.07033        -0.000000     -0.000000      0.000000
      2.82382      2.82382      0.00000        -0.000000     -0.000000      0.000000
      2.82382      2.82382      4.07033        -0.000000     -0.000000      0.000000
      1.41191      1.41191      2.03517         0.042794      0.042794      0.135766
      1.41191      1.41191      6.10550         0.042794      0.042794     -0.135766
      1.41191      4.23573      2.03517         0.042794     -0.042794      0.135766
      1.41191      4.23573      6.10550         0.042794     -0.042794     -0.135766
      4.23573      1.41191      2.03517        -0.042794      0.042794      0.135766
      4.23573      1.41191      6.10550        -0.042794      0.042794     -0.135766
      4.23573      4.23573      2.03517        -0.042794     -0.042794      0.135766
      4.23573      4.23573      6.10550        -0.042794     -0.042794     -0.135766
    total drift:                                0.000000      0.000000      0.000000

  FREE ENERGIE OF THE ION-ELECTRON SYSTEM (eV)
  free  energy   TOTEN  =       -93.82260378 eV

  energy  without entropy=      -93.76117974  energy(sigma->0) =      -93.79189176

 Quasi-Newton relaxation of ions (Broydens 2nd method)
  g(Force)  = 0.853E-02   g(Stress)= 0.197E-01

 Reset! Starting new Quasi-Newton update for ions

[...]

  energy  without entropy=      -93.78227173  energy(sigma->0) =      -93.81268952
 d Force = 0.6938702E-02[ 0.533E-02, 0.855E-02]  d Energy = 0.2050355E-01-0.136E-01
 d Force = 0.2265898E+00[ 0.190E+00, 0.263E+00]  d Ewald  = 0.2977811E+01-0.275E+01

[...]

 retain information from N=  1 steps
 eigenvalues of (default step * inverse Hessian matrix)
  average eigenvalue of G=   1.1415
 eigenvalue spectrum of G is  1.1415

[...]

  energy  without entropy=      -93.79004478  energy(sigma->0) =      -93.82051575
 d Force = 0.3211464E-02[ 0.236E-02, 0.406E-02]  d Energy = 0.7879388E-02-0.467E-02
 d Force = 0.1235403E+00[ 0.102E+00, 0.145E+00]  d Ewald  =-0.1914406E+02 0.193E+02

[...]

  energy  without entropy=      -93.79306317  energy(sigma->0) =      -93.82337445
 d Force = 0.1390811E-02[ 0.524E-03, 0.226E-02]  d Energy = 0.2699014E-02-0.131E-02
 d Force = 0.7741089E-01[ 0.576E-01, 0.973E-01]  d Ewald  =-0.1935198E+01 0.201E+01

[...]

--------------------------------------- Ionic step        5  -------------------------------------------

[...]

 eigenvalue-minimisations  :  7260
 total energy-change (2. order) : 0.9248441E-05  (-0.1264928E-04)
 number of electron     120.9999743 magnetization
 augmentation part       34.1717614 magnetization

 Broyden mixing:
  rms(total) = 0.13241E-02    rms(broyden)= 0.13240E-02
  rms(prec ) = 0.24180E-02
  weight for this iteration     100.00

 eigenvalues of (default mixing * dielectric matrix)
  average eigenvalue GAMMA=   0.5896
  1.1124  0.2106  0.4459

[...]

--------------------------------------- Iteration      5(   5)  ---------------------------------------

 eigenvalue-minimisations  :  6028
 total energy-change (2. order) :-0.5285074E-07  (-0.5750003E-05)
 number of electron     120.9999743 magnetization
 augmentation part       34.1717614 magnetization

 Free energy of the ion-electron system (eV)
  alpha Z        PSCENC =       315.16450473
  Ewald energy   TEWEN  =     -8824.03663466
  -Hartree energ DENC   =     -4134.61965616
  -exchange      EXHF   =         0.00000000
  -V(xc)+E(xc)   XCENC  =       262.33016492
  PAW double counting   =     13513.05551217   -13432.35445502
  entropy T*S    EENTRO =        -0.06056280
  eigenvalues    EBANDS =     -1487.06238981
  atomic energy  EATOM  =     13693.72977468
  Solvation  Ediel_sol  =         0.00000000
  free energy    TOTEN  =       -93.85374195 eV

  energy without entropy =      -93.79317915  energy(sigma->0) =      -93.82346055

 average (electrostatic) potential at core
  the test charge radii are     1.0314  1.0397  1.0406
  (the norm of the test charge is              1.0000)
       1 -62.1000       2 -72.2718       3 -72.4981       4 -72.4035       5 -72.4981
       6 -72.4035       7 -72.4403       8 -72.2257       9 -71.5249      10 -71.5249
      11 -71.5249      12 -71.5249      13 -71.5249      14 -71.5249      15 -71.5249
      16 -71.5249

 E-fermi :   8.2676     XC(G=0): -11.0423     alpha+bet :-16.0145

 val. band max:        8.2598531943   @ k =   0.3333   0.3333   0.5000
 cond. band min:       8.2729266626   @ k =   0.5000   0.3333   0.5000
 fundamental gap:      0.0130734683
 Fermi energy:         8.2675669242

[...]

 k-point    30 :       0.5000    0.5000    0.5000
  band No.  band energies     occupation
      1     -48.4501      2.00000
      2     -48.4501      2.00000
      3     -48.3882      2.00000
      4     -48.3568      2.00000
      5     -48.3568      2.00000
      6     -48.2284      2.00000
      7     -48.1870      2.00000
      8     -24.8003      2.00000
      9     -24.7991      2.00000
     10     -24.7991      2.00000
     11     -24.7812      2.00000
     12     -24.7643      2.00000
     13     -24.7643      2.00000
     14     -24.7369      2.00000
     15     -24.6289      2.00000
     16     -24.6289      2.00000
     17     -24.6278      2.00000
     18     -24.6126      2.00000
     19     -24.5878      2.00000
     20     -24.5878      2.00000
     21     -24.5847      2.00000
     22     -24.5831      2.00000
     23     -24.5726      2.00000
     24     -24.5695      2.00000
     25     -24.4796      2.00000
     26     -24.4796      2.00000
     27     -24.4231      2.00000
     28     -24.4231      2.00000
     29      -6.5545      2.00000
     30      -6.5545      2.00000
     31      -6.5539      2.00000
     32      -6.5350      2.00000
     33      -6.5069      2.00000
     34       0.1895      2.00000
     35       1.5836      2.00000
     36       1.6685      2.00000
     37       1.6685      2.00000
     38       1.8632      2.00000
     39       1.9117      2.00000
     40       1.9376      2.00000
     41       1.9376      2.00000
     42       4.6655      2.00000
     43       5.4704      2.00000
     44       5.4704      2.00000
     45       5.6174      2.00000
     46       6.0946      2.00000
     47       6.2746      2.00000
     48       6.2746      2.00000
     49       6.3320      2.00000
     50       7.5610      2.00000
     51       7.5610      2.00000
     52       7.8619      2.00000
     53       7.8663      2.00000
     54       7.8992      2.00000
     55       8.0516      1.99774
     56       8.0516      1.99774
     57       8.1112      1.97300
     58       8.1500      1.90365
     59       8.1500      1.90365
     60       8.2112      1.57431
[...]
     74       9.9246      0.00000
     75       9.9246      0.00000
     76      10.0181      0.00000
     77      10.0354      0.00000
     78      10.0712      0.00000
     79      10.0712      0.00000
     80      10.7219      0.00000
     81      11.3679      0.00000
     82      11.4966      0.00000
     83      11.4966      0.00000
     84      11.5328      0.00000
     85      11.6037      0.00000
     86      12.3507      0.00000
     87      12.3507      0.00000
     88      12.6582      0.00000

 soft charge-density along one line, spin component           1
         0         1         2         3         4         5         6         7         8         9
 total charge-density along one line

------------------------ aborting loop because EDIFF is reached ----------------------------------------

  FORCE on cell =-STRESS in cart. coord.  units (eV):
  Direction    XX          YY          ZZ          XY          YZ          ZX
  Alpha Z   315.16450   315.16450   315.16450
  Ewald   -2299.74450 -2299.74450 -4224.56271     0.00000    -0.00000    -0.00000
  Hartree  1935.40388  1935.40388   263.71770    -0.00000    -0.00000    -0.00000
  E(xc)    -591.74586  -591.74586  -593.01424    -0.00000    -0.00000     0.00000
  Local   -1261.74811 -1261.74811  2359.48781    -0.00000     0.00000     0.00000
  n-local   -70.79081   -91.92885   -43.38582    -2.04865     0.79079     1.26858
  augment   553.18009   553.18009   537.66054     0.00000    -0.00000     0.00000
  Kinetic  1417.54669  1444.12119  1384.88097     0.55687    -1.22642    -0.67462
  Fock        0.00000     0.00000     0.00000     0.00000     0.00000     0.00000
  Total      -0.01588    -0.01588    -0.05125     0.00000     0.00000     0.00000
  in kB      -0.09819    -0.09819    -0.31692     0.00000     0.00000     0.00000

 VOLUME and BASIS-vectors are now :
  energy-cutoff  :      520.00
  volume of cell :      259.10
      direct lattice vectors                 reciprocal lattice vectors
     5.606951968  0.000000000 -0.000000000     0.178350021  0.000000000  0.000000000
     0.000000000  5.606951968  0.000000000     0.000000000  0.178350021  0.000000000
    -0.000000000  0.000000000  8.241706534     0.000000000  0.000000000  0.121334095

  length of vectors
     5.606951968  5.606951968  8.241706534     0.178350021  0.178350021  0.121334095

 FORCES acting on ions
    electron-ion (+dipol)            ewald-force                    non-local-force                 convergence-correction
   0.715E-14 0.113E-13 -.101E-12   0.378E-13 0.624E-14 -.292E-13   -.123E-27 0.000E+00 0.000E+00   -.264E-12 0.154E-12 0.236E-12
   0.856E-15 0.139E-15 0.103E-11   -.325E-13 -.969E-14 0.512E-13   0.122E-27 0.000E+00 0.000E+00   0.234E-12 -.135E-12 0.343E-12
   -.229E-14 0.382E-12 -.555E-13   -.295E-13 -.613E-14 -.274E-13   0.578E-28 0.000E+00 0.000E+00   -.267E-12 -.170E-12 0.575E-14
   -.704E-15 0.388E-12 0.104E-11   -.451E-13 -.140E-13 0.195E-13   -.446E-28 0.000E+00 0.000E+00   0.226E-12 0.101E-12 0.489E-12
   0.376E-12 -.249E-14 -.688E-11   -.591E-14 0.658E-14 -.231E-13   -.192E-28 0.000E+00 0.000E+00   0.232E-12 0.129E-12 0.200E-12
   0.386E-12 -.133E-14 0.434E-11   0.286E-13 0.284E-14 0.274E-13   0.253E-27 0.000E+00 0.000E+00   -.242E-12 -.130E-12 0.309E-12
   0.388E-12 0.401E-12 -.211E-11   -.259E-13 -.184E-13 -.310E-13   0.756E-28 0.000E+00 0.000E+00   0.261E-12 -.170E-12 0.268E-13
   0.388E-12 0.420E-12 0.259E-11   0.946E-14 -.108E-13 0.433E-13   0.163E-28 0.000E+00 0.000E+00   -.230E-12 0.855E-13 0.519E-12
   -.620E+00 -.620E+00 0.464E+00   0.109E+01 0.109E+01 0.671E+00   -.466E+00 -.466E+00 -.113E+01   -.495E-02 -.495E-02 0.343E-02
   -.620E+00 -.620E+00 -.464E+00   0.109E+01 0.109E+01 -.671E+00   -.466E+00 -.466E+00 0.113E+01   -.495E-02 -.495E-02 -.343E-02
   -.620E+00 0.620E+00 0.464E+00   0.109E+01 -.109E+01 0.671E+00   -.466E+00 0.466E+00 -.113E+01   -.495E-02 0.495E-02 0.343E-02
   -.620E+00 0.620E+00 -.464E+00   0.109E+01 -.109E+01 -.671E+00   -.466E+00 0.466E+00 0.113E+01   -.495E-02 0.495E-02 -.343E-02
   0.620E+00 -.620E+00 0.464E+00   -.109E+01 0.109E+01 0.671E+00   0.466E+00 -.466E+00 -.113E+01   0.495E-02 -.495E-02 0.343E-02
   0.620E+00 -.620E+00 -.464E+00   -.109E+01 0.109E+01 -.671E+00   0.466E+00 -.466E+00 0.113E+01   0.495E-02 -.495E-02 -.343E-02
   0.620E+00 0.620E+00 0.464E+00   -.109E+01 -.109E+01 0.671E+00   0.466E+00 0.466E+00 -.113E+01   0.495E-02 0.495E-02 0.343E-02
   0.620E+00 0.620E+00 -.464E+00   -.109E+01 -.109E+01 -.671E+00   0.466E+00 0.466E+00 0.113E+01   0.495E-02 0.495E-02 -.343E-02
   0.147E-11 0.144E-11 -.374E-12   0.200E-14 -.666E-14 -.167E-14   0.000E+00 -.278E-15 -.222E-15   -.507E-13 -.131E-12 0.189E-11

 POSITION                                       TOTAL-FORCE (eV/Angst)
     -0.00000     -0.00000     -0.00000        -0.000000      0.000000      0.000000
     -0.00000     -0.00000      4.12085        -0.000000      0.000000      0.000000
     -0.00000      2.80348     -0.00000        -0.000000      0.000000      0.000000
     -0.00000      2.80348      4.12085        -0.000000      0.000000      0.000000
      2.80348     -0.00000     -0.00000        -0.000000      0.000000      0.000000
      2.80348     -0.00000      4.12085        -0.000000      0.000000      0.000000
      2.80348      2.80348     -0.00000        -0.000000      0.000000      0.000000
      2.80348      2.80348      4.12085        -0.000000      0.000000      0.000000
      1.40705      1.40705      2.07750         0.002312      0.002312      0.006833
      1.40705      1.40705      6.16421         0.002312      0.002312     -0.006833
      1.40705      4.19990      2.07750         0.002312     -0.002312      0.006833
      1.40705      4.19990      6.16421         0.002312     -0.002312     -0.006833
      4.19990      1.40705      2.07750        -0.002312      0.002312      0.006833
      4.19990      1.40705      6.16421        -0.002312      0.002312     -0.006833
      4.19990      4.19990      2.07750        -0.002312     -0.002312      0.006833
      4.19990      4.19990      6.16421        -0.002312     -0.002312     -0.006833
    total drift:                                0.000000      0.000000      0.000000

  FREE ENERGIE OF THE ION-ELECTRON SYSTEM (eV)
  free  energy   TOTEN  =       -93.85374195 eV

  energy  without entropy=      -93.79317915  energy(sigma->0) =      -93.82346055
 d Force = 0.5539358E-04[ 0.413E-04, 0.695E-04]  d Energy = 0.5622653E-04-0.833E-06
 d Force = 0.6421993E-02[ 0.607E-02, 0.678E-02]  d Ewald  = 0.5048205E+00-0.498E+00

 Quasi-Newton relaxation of ions (Broydens 2nd method)
  g(Force)  = 0.221E-04   g(Stress)= 0.944E-05

 retain information from N=  3 steps
 eigenvalues of (default step * inverse Hessian matrix)
  average eigenvalue of G=   1.7842
 eigenvalue spectrum of G is  2.4830  2.4830  0.3866

 reached required accuracy - stopping structural energy minimisation
 writing wavefunctions