 vasp.6.5.0 16Dec24 (build Apr 17 2025 17:55:45) complex

 executed on             LinuxIFC date 2025.07.14  12:49:10

 INCAR:
   ISTART = 0
   ICHARG = 2
   PREC = N
   LREAL = .FALSE.
   ENCUT = 520
   ALGO = N
   NELM = 500
   EDIFF = 1E-05
   IBRION = -1
   ISIF = 3
   NSW = 0
   EDIFFG = -0.01
   ISMEAR = 1
   SIGMA = 0.1
   LVHAR = .TRUE.
   LVTOT = .TRUE.

 POTCAR:    PAW_PBE Ti_sv 26Sep2005
 POTCAR:    PAW_PBE Al 04Jan2001
|           W    W    AA    RRRRR   N    N  II  N    N   GGGG   !!!           |
|           W    W   A  A   R    R  NN   N  II  NN   N  G    G  !!!           |
|           W    W  A    A  R    R  N N  N  II  N N  N  G       !!!           |
|           W WW W  AAAAAA  RRRRR   N  N N  II  N  N N  G  GGG   !            |
|           WW  WW  A    A  R   R   N   NN  II  N   NN  G    G                |
|           W    W  A    A  R    R  N    N  II  N    N   GGGG   !!!           |
|     For optimal performance we recommend to set                             |
|       NCORE = 2 up to number-of-cores-per-socket                            |
|     This setting can greatly improve the performance of VASP for DFT.       |
|     The default, NCORE=1 might be grossly inefficient on modern             |
|     multi-core architectures or massively parallel machines. Do your        |
|     Unfortunately you need to use the default for GW and RPA                |
|     calculations (for HF NCORE is supported but not extensively tested      |
|     yet).                                                                   |

   TITEL  = PAW_PBE Ti_sv 26Sep2005
   POMASS =   47.880; ZVAL   =   12.000    mass and valenz
   ENMAX  =  274.610; ENMIN  =  205.957 eV

   TITEL  = PAW_PBE Al 04Jan2001
   POMASS =   26.981; ZVAL   =    3.000    mass and valenz
   ENMAX  =  240.300; ENMIN  =  180.225 eV

  PAW_PBE Ti_sv 26Sep2005               :
  PAW_PBE Al 04Jan2001                  :

 POSCAR: 0000065828-primitive-cell\(1\1\0)
  positions in direct lattice

 exchange-correlation table for PE
   RHO(1)=    0.500       N(1)  =     2000
   RHO(2)=  100.500       N(2)  =     4000

 ion  position               nearest neighbor table
   1  0.000  0.500  0.333-   2 2.82   2 2.82   5 2.85   5 2.85   5 2.85   5 2.85   6 2.85   6 2.85

   2  0.000  0.000  0.429-   3 2.82   3 2.82   1 2.82   1 2.82   7 2.85   7 2.85   6 2.85   6 2.85
                             6 2.85   6 2.85   5 2.85   5 2.85
   3  0.000  0.500  0.524-   2 2.82   2 2.82   4 2.82   4 2.82   6 2.85   6 2.85   7 2.85   7 2.85
                             7 2.85   7 2.85   8 2.85   8 2.85
   4  0.000  0.000  0.619-   3 2.82   3 2.82   8 2.85   8 2.85   8 2.85   8 2.85   7 2.85   7 2.85

   5  0.500  0.000  0.333-   6 2.82   6 2.82   1 2.85   1 2.85   1 2.85   1 2.85   2 2.85   2 2.85

   6  0.500  0.500  0.429-   7 2.82   7 2.82   5 2.82   5 2.82   3 2.85   3 2.85   2 2.85   2 2.85
                             2 2.85   2 2.85   1 2.85   1 2.85
   7  0.500  0.000  0.524-   6 2.82   6 2.82   8 2.82   8 2.82   2 2.85   2 2.85   3 2.85   3 2.85
                             3 2.85   3 2.85   4 2.85   4 2.85
   8  0.500  0.500  0.619-   7 2.82   7 2.82   4 2.85   4 2.85   4 2.85   4 2.85   3 2.85   3 2.85

  LATTYP: Found a simple orthorhombic cell.
 ALAT       =     3.9934999943
 B/A-ratio  =     1.0192312778
 C/A-ratio  =     5.2560911663

  Lattice vectors:

 A1 = (   0.0000000000,  -3.9934999943,   0.0000000000)
 A2 = (   4.0703001022,   0.0000000000,   0.0000000000)
 A3 = (   0.0000000000,   0.0000000000,  20.9902000427)

Analysis of symmetry for initial positions (statically):
 Subroutine PRICEL returns:
 Original cell was already a primitive cell.

 Routine SETGRP: Setting up the symmetry group for a
 simple orthorhombic supercell.

 Subroutine GETGRP returns: Found  8 space group operations
 (whereof  4 operations were pure point group operations)
 out of a pool of  8 trial point group operations.

The static configuration has the point symmetry C_2v.
 The point group associated with its full space group is D_2h.

Analysis of symmetry for dynamics (positions and initial velocities):
 Subroutine PRICEL returns:
 Original cell was already a primitive cell.

 Routine SETGRP: Setting up the symmetry group for a
 simple orthorhombic supercell.

 Subroutine GETGRP returns: Found  8 space group operations
 (whereof  4 operations were pure point group operations)
 out of a pool of  8 trial point group operations.

The dynamic configuration has the point symmetry C_2v.
 The point group associated with its full space group is D_2h.

 Subroutine INISYM returns: Found  8 space group operations
 (whereof  4 operations are pure point group operations),
 and found     1 'primitive' translations

                                     Primitive cell

  volume of cell :     341.1903

  direct lattice vectors                    reciprocal lattice vectors
     4.070300102  0.000000000  0.000000000     0.245682130  0.000000000  0.000000000
     0.000000000  3.993499994  0.000000000     0.000000000  0.250406912  0.000000000
     0.000000000  0.000000000 20.990200043     0.000000000  0.000000000  0.047641280

  length of vectors
     4.070300102  3.993499994 20.990200043     0.245682130  0.250406912  0.047641280

  position of ions in fractional coordinates (direct lattice)
     0.000000000  0.500000000  0.333490014
     0.000000000  0.000000000  0.428620011
     0.000000000  0.500000000  0.523739994
     0.000000000  0.000000000  0.618870020
     0.500000000  0.000000000  0.333490014
     0.500000000  0.500000000  0.428620011
     0.500000000  0.000000000  0.523739994
     0.500000000  0.500000000  0.618870020

  ion indices of the primitive-cell ions
   primitive index   ion index
                 1           1
                 2           2
                 3           3
                 4           4
                 5           5
                 6           6
                 7           7
                 8           8

 KPOINTS: K-Spacing Value to Generate K-Mesh: 0.04

Automatic generation of k-mesh.
 Grid dimensions read from file:
 generate k-points for:    6    6    1

 Generating k-lattice:

  Cartesian coordinates                     Fractional coordinates (reciprocal lattice)
     0.040947022  0.000000000  0.000000000     0.166666667  0.000000000  0.000000000
     0.000000000  0.041734485  0.000000000     0.000000000  0.166666667  0.000000000
     0.000000000  0.000000000  0.047641280     0.000000000  0.000000000  1.000000000

  Length of vectors
     0.040947022  0.041734485  0.047641280

  Shift w.r.t. Gamma in fractional coordinates (k-lattice)
     0.000000000  0.000000000  0.000000000

 Subroutine IBZKPT returns following result:

 Found     16 irreducible k-points:

 Following reciprocal coordinates:
            Coordinates               Weight
  0.000000  0.000000  0.000000      1.000000
  0.166667  0.000000  0.000000      2.000000
  0.333333  0.000000  0.000000      2.000000
  0.500000  0.000000  0.000000      1.000000
  0.000000  0.166667  0.000000      2.000000
  0.166667  0.166667  0.000000      4.000000
  0.333333  0.166667  0.000000      4.000000
  0.500000  0.166667  0.000000      2.000000
  0.000000  0.333333  0.000000      2.000000
  0.166667  0.333333  0.000000      4.000000
  0.333333  0.333333  0.000000      4.000000
  0.500000  0.333333  0.000000      2.000000
  0.000000  0.500000  0.000000      1.000000
  0.166667  0.500000  0.000000      2.000000
  0.333333  0.500000  0.000000      2.000000
  0.500000  0.500000  0.000000      1.000000

 Following cartesian coordinates:
            Coordinates               Weight
  0.000000  0.000000  0.000000      1.000000
  0.040947  0.000000  0.000000      2.000000
  0.081894  0.000000  0.000000      2.000000
  0.122841  0.000000  0.000000      1.000000
  0.000000  0.041734  0.000000      2.000000
  0.040947  0.041734  0.000000      4.000000
  0.081894  0.041734  0.000000      4.000000
  0.122841  0.041734  0.000000      2.000000
  0.000000  0.083469  0.000000      2.000000
  0.040947  0.083469  0.000000      4.000000
  0.081894  0.083469  0.000000      4.000000
  0.122841  0.083469  0.000000      2.000000
  0.000000  0.125203  0.000000      1.000000
  0.040947  0.125203  0.000000      2.000000
  0.081894  0.125203  0.000000      2.000000
  0.122841  0.125203  0.000000      1.000000

 SYSTEM =  unknown system
 POSCAR =  0000065828-primitive-cell\(1\1\0)

 Startparameter for this run:
   NWRITE =      2    write-flag & timer
   PREC   = n         normal or accurate (medium, high low for compatibility)
   ISTART =      0    job   : 0-new  1-cont  2-samecut
   ICHARG =      2    charge: 1-file 2-atom 10-const
   ISPIN  =      1    spin polarized calculation?
   LNONCOLLINEAR =      F non collinear calculations
   LSORBIT =      F    spin-orbit coupling
   INIWAV =      1    electr: 0-lowe 1-rand  2-diag
   LASPH  =      F    aspherical Exc in radial PAW
 Electronic Relaxation 1
   ENCUT  =  520.0 eV  38.22 Ry    6.18 a.u.   7.57  7.43 39.03*2*pi/ulx,y,z
   ENINI  =  520.0     initial cutoff
   ENAUG  =  482.8 eV  augmentation charge cutoff
   NELM   =    500;   NELMIN=  2; NELMDL= -5     # of ELM steps
   EDIFF  = 0.1E-04   stopping-criterion for ELM
   LREAL  =      F    real-space projection
   NLSPLINE    = F    spline interpolate recip. space projectors
   LCOMPAT=      F    compatible to vasp.4.4
   GGA_COMPAT  = T    GGA compatible to vasp.4.4-vasp.4.6
   LMAXPAW     = -100 max onsite density
   LMAXMIX     =    2 max onsite mixed and CHGCAR
   VOSKOWN=      0    Vosko Wilk Nusair interpolation
   ROPT   =    0.00000   0.00000
 Ionic relaxation
   EDIFFG = -.1E-01   stopping-criterion for IOM
   NSW    =      0    number of steps for IOM
   NBLOCK =      1;   KBLOCK =      1    inner block; outer block
   IBRION =     -1    ionic relax: 0-MD 1-quasi-New 2-CG
   NFREE  =      0    steps in history (QN), initial steepest desc. (CG)
   ISIF   =      3    stress and relaxation
   IWAVPR =     10    prediction:  0-non 1-charg 2-wave 3-comb
   ISYM   =      2    0-nonsym 1-usesym 2-fastsym
   LCORR  =      T    Harris-Foulkes like correction to forces

   POTIM  = 0.5000    time-step for ionic-motion
   TEIN   =    0.0    initial temperature
   TEBEG  =    0.0;   TEEND  =   0.0 temperature during run
   SMASS  =  -3.00    Nose mass-parameter (am)
   estimated Nose-frequenzy (Omega)   =  0.10E-29 period in steps = 0.13E+47 mass=  -0.379E-27a.u.
   SCALEE = 1.0000    scale energy and forces
   NPACO  =    256;   APACO  = 10.0  distance and # of slots for P.C.
   PSTRESS=    0.0 pullay stress

  Mass of Ions in am
   POMASS =  47.88 26.98
  Ionic Valenz
   ZVAL   =  12.00  3.00
  Atomic Wigner-Seitz radii
  virtual crystal weights
   VCA    =   1.00  1.00
   NELECT =      60.0000    total number of electrons
   NUPDOWN=      -1.0000    fix difference up-down

 DOS related values:
   EMIN   =  10.00;   EMAX   =-10.00  energy-range for DOS
   EFERMI =   0.00;   METHOD = LEGACY
   ISMEAR =     1;   SIGMA  =   0.10  broadening in eV -4-tet -1-fermi 0-gaus
   EFERMI_NEDOS =   21; number of points for ismear=-14 and -15

 Electronic relaxation 2 (details)
   IALGO  =     38    algorithm
[...]

[...]

 k-points in units of 2pi/SCALE and weight: K-Spacing Value to Generate K-Mesh: 0.04
   0.00000000  0.00000000  0.00000000       0.028
   0.04094702  0.00000000  0.00000000       0.056
   0.08189404  0.00000000  0.00000000       0.056
   0.12284107  0.00000000  0.00000000       0.028
   0.00000000  0.04173449  0.00000000       0.056
   0.04094702  0.04173449  0.00000000       0.111
   0.08189404  0.04173449  0.00000000       0.111
   0.12284107  0.04173449  0.00000000       0.056
   0.00000000  0.08346897  0.00000000       0.056
   0.04094702  0.08346897  0.00000000       0.111
   0.08189404  0.08346897  0.00000000       0.111
   0.12284107  0.08346897  0.00000000       0.056
   0.00000000  0.12520346  0.00000000       0.028
   0.04094702  0.12520346  0.00000000       0.056
   0.08189404  0.12520346  0.00000000       0.056
   0.12284107  0.12520346  0.00000000       0.028

 k-points in reciprocal lattice and weights: K-Spacing Value to Generate K-Mesh: 0.04
   0.00000000  0.00000000  0.00000000       0.028
   0.16666667  0.00000000  0.00000000       0.056
   0.33333333  0.00000000  0.00000000       0.056
   0.50000000  0.00000000  0.00000000       0.028
   0.00000000  0.16666667  0.00000000       0.056
   0.16666667  0.16666667  0.00000000       0.111
   0.33333333  0.16666667  0.00000000       0.111
   0.50000000  0.16666667  0.00000000       0.056
   0.00000000  0.33333333  0.00000000       0.056
   0.16666667  0.33333333  0.00000000       0.111
   0.33333333  0.33333333  0.00000000       0.111
   0.50000000  0.33333333  0.00000000       0.056
   0.00000000  0.50000000  0.00000000       0.028
   0.16666667  0.50000000  0.00000000       0.056
   0.33333333  0.50000000  0.00000000       0.056
   0.50000000  0.50000000  0.00000000       0.028

 position of ions in fractional coordinates (direct lattice)
   0.00000000  0.50000000  0.33349001
   0.00000000  0.00000000  0.42862001
   0.00000000  0.50000000  0.52373999
   0.00000000  0.00000000  0.61887002
   0.50000000  0.00000000  0.33349001
   0.50000000  0.50000000  0.42862001
   0.50000000  0.00000000  0.52373999
   0.50000000  0.50000000  0.61887002

 position of ions in cartesian coordinates  (Angst):
   0.00000000  1.99675000  7.00002211
   0.00000000  0.00000000  8.99681977
   0.00000000  1.99675000 10.99340724
   0.00000000  0.00000000 12.99020552
   2.03515005  0.00000000  7.00002211
   2.03515005  1.99675000  8.99681977
   2.03515005  0.00000000 10.99340724
   2.03515005  1.99675000 12.99020552

 k-point     1 :   0.0000 0.0000 0.0000  plane waves:    9255
 k-point     2 :   0.1667 0.0000 0.0000  plane waves:    9245
 k-point     3 :   0.3333 0.0000 0.0000  plane waves:    9179
 k-point     4 :   0.5000 0.0000 0.0000  plane waves:    9116
 k-point     5 :   0.0000 0.1667 0.0000  plane waves:    9191
 k-point     6 :   0.1667 0.1667 0.0000  plane waves:    9233
 k-point     7 :   0.3333 0.1667 0.0000  plane waves:    9196
 k-point     8 :   0.5000 0.1667 0.0000  plane waves:    9180
 k-point     9 :   0.0000 0.3333 0.0000  plane waves:    9193
 k-point    10 :   0.1667 0.3333 0.0000  plane waves:    9196
 k-point    11 :   0.3333 0.3333 0.0000  plane waves:    9175
 k-point    12 :   0.5000 0.3333 0.0000  plane waves:    9160
 k-point    13 :   0.0000 0.5000 0.0000  plane waves:    9182
 k-point    14 :   0.1667 0.5000 0.0000  plane waves:    9152
 k-point    15 :   0.3333 0.5000 0.0000  plane waves:    9142
 k-point    16 :   0.5000 0.5000 0.0000  plane waves:    9176

 maximum and minimum number of plane-waves per node :      9255     9116

 maximum number of plane-waves:      9255
 maximum index in each direction:
   IXMAX=    7   IYMAX=    7   IZMAX=   39
   IXMIN=   -8   IYMIN=   -7   IZMIN=  -39

 serial   3D FFT for wavefunctions
 parallel 3D FFT for charge:
    minimum data exchange during FFTs selected (reduces bandwidth)

 Broyden mixing: mesh for mixing (old mesh)
   NGX = 15   NGY = 15   NGZ = 79
  (NGX  = 48   NGY  = 48   NGZ  =240)
  gives a total of  17775 points

 initial charge density was supplied:
 charge density of overlapping atoms calculated
 number of electron      60.0000000 magnetization
 keeping initial charge density in first step

 Maximum index for augmentation-charges          468 (set IRDMAX)

 First call to EWALD:  gamma=   0.254
 Maximum number of real-space cells   4x   4x   1
 Maximum number of reciprocal cells   2x   2x   7

--------------------------------------- Ionic step        1  -------------------------------------------

--------------------------------------- Iteration      1(   1)  ---------------------------------------

 eigenvalue-minimisations  :  2048
 total energy-change (2. order) : 0.2007680E+03  (-0.3461638E+04)
 number of electron      60.0000000 magnetization
 augmentation part       60.0000000 magnetization

 Free energy of the ion-electron system (eV)
  alpha Z        PSCENC =        57.49136581
  Ewald energy   TEWEN  =      9645.35123884
  -Hartree energ DENC   =    -15385.75922484
  -exchange      EXHF   =         0.00000000
  -V(xc)+E(xc)   XCENC  =       140.86887141
  PAW double counting   =      5323.06139147    -5116.90369196
  entropy T*S    EENTRO =         0.00073949
  eigenvalues    EBANDS =     -1029.83647406
  atomic energy  EATOM  =      6566.49377757
  Solvation  Ediel_sol  =         0.00000000
  free energy    TOTEN  =       200.76799373 eV

  energy without entropy =      200.76725424  energy(sigma->0) =      200.76774724

[...]

 eigenvalue-minimisations  :  2624
 total energy-change (2. order) :-0.2391831E+03  (-0.2389423E+03)
 number of electron      60.0000000 magnetization
 augmentation part       60.0000000 magnetization

[...]

 Broyden mixing:
  rms(total) = 0.19392E+01    rms(broyden)= 0.19392E+01
  rms(prec ) = 0.22049E+01
  weight for this iteration     100.00

[...]

 eigenvalues of (default mixing * dielectric matrix)
  average eigenvalue GAMMA=   0.3666
  0.3666

[...]

 eigenvalue-minimisations  :  2304
 total energy-change (2. order) : 0.1261621E-04  (-0.3670478E-04)
 number of electron      60.0000038 magnetization
 augmentation part       14.8049628 magnetization

[...]

 Broyden mixing:
  rms(total) = 0.11819E-03    rms(broyden)= 0.11819E-03
  rms(prec ) = 0.14265E-03
  weight for this iteration     100.00

 eigenvalues of (default mixing * dielectric matrix)
  average eigenvalue GAMMA=   2.1623
  8.9690  5.3397  3.4709  2.8443  2.1486  2.1486  0.2231  1.7774  0.4414  0.6997
  1.3332  1.1907  1.0204  1.0204  0.9846  0.9846

[...]

--------------------------------------- Iteration      1(  22)  ---------------------------------------

 eigenvalue-minimisations  :  2432
 total energy-change (2. order) :-0.9567572E-05  (-0.7967219E-07)
 number of electron      60.0000038 magnetization
 augmentation part       14.8046647 magnetization

 Free energy of the ion-electron system (eV)
  alpha Z        PSCENC =        57.49136581
  Ewald energy   TEWEN  =      9645.35123884
  -Hartree energ DENC   =    -15399.13698136
  -exchange      EXHF   =         0.00000000
  -V(xc)+E(xc)   XCENC  =       137.29542936
  PAW double counting   =      6336.72180331    -6119.37072139
  entropy T*S    EENTRO =        -0.00230786
  eigenvalues    EBANDS =     -1271.02120300
  atomic energy  EATOM  =      6566.49377757
  Solvation  Ediel_sol  =         0.00000000
  free energy    TOTEN  =       -46.17759872 eV

  energy without entropy =      -46.17529086  energy(sigma->0) =      -46.17682944

 average (electrostatic) potential at core
  the test charge radii are     1.0397  1.0406
  (the norm of the test charge is              1.0000)
       1 -80.2793       2 -79.8426       3 -79.8426       4 -80.2792       5 -78.9407
       6 -78.8882       7 -78.8882       8 -78.9406

 E-fermi :   0.7802     XC(G=0):  -5.2015     alpha+bet : -6.1710

 val. band max:        0.7759469316   @ k =   0.0000   0.1667   0.0000
 cond. band min:       0.8100421679   @ k =   0.1667   0.1667   0.0000
 fundamental gap:      0.0340952363
 Fermi energy:         0.7801838925

 k-point     1 :       0.0000    0.0000    0.0000
  band No.  band energies     occupation
      1     -56.2224      2.00000
      2     -56.2222      2.00000
      3     -55.8204      2.00000
      4     -55.7636      2.00000
      5     -32.6319      2.00000
      6     -32.6293      2.00000
      7     -32.4370      2.00000
      8     -32.4268      2.00000
      9     -32.4260      2.00000
     10     -32.4256      2.00000
     11     -32.2135      2.00000
     12     -32.1588      2.00000
     13     -32.0923      2.00000
     14     -32.0791      2.00000
     15     -31.8996      2.00000
     16     -31.8777      2.00000
     17      -7.7547      2.00000
     18      -6.3682      2.00000
     19      -4.4725      2.00000
     20      -2.7366      2.00000
     21      -0.7745      2.00000
     22      -0.7062      2.00000
     23      -0.1750      2.00000
     24       0.0435      2.00000
     25       0.0719      2.00000
     26       0.0720      2.00000
     27       0.1947      2.00000
     28       0.3853      2.00000
     29       0.4106      2.00000
     30       0.4580      2.00005
     31       0.4905      2.00033
     32       0.7569      1.38220
     33       1.2726     -0.00000
     34       1.3098     -0.00000
     35       1.8162     -0.00000
     36       1.9774     -0.00000
     37       2.0355     -0.00000
     38       2.3739     -0.00000
     39       2.4191     -0.00000
     40       2.4633     -0.00000
     41       2.5052     -0.00000
     42       2.6487     -0.00000
     43       3.5667      0.00000
     44       4.3302      0.00000
     45       4.4056      0.00000
     46       4.5934      0.00000
     47       4.6478      0.00000
     48       5.1812      0.00000
     49       5.7580      0.00000
     50       6.0177      0.00000
     51       6.1413      0.00000
     52       6.3956      0.00000
     53       6.7490      0.00000
     54       6.9324      0.00000
     55       6.9662      0.00000
     56       6.9722      0.00000
     57       7.1826      0.00000
     58       7.6330      0.00000
     59       7.8573      0.00000
     60       8.3085      0.00000
     61       8.5361      0.00000
     62       9.1991      0.00000
     63       9.2077      0.00000
     64      10.0719      0.00000

[...]

 k-point    16 :       0.5000    0.5000    0.0000
  band No.  band energies     occupation
      1     -56.2195      2.00000
      2     -56.2195      2.00000
      3     -55.7928      2.00000
      4     -55.7928      2.00000
      5     -32.6405      2.00000
      6     -32.6405      2.00000
      7     -32.4538      2.00000
      8     -32.4537      2.00000
      9     -32.4332      2.00000
     10     -32.4331      2.00000
     11     -32.2008      2.00000
     12     -32.2008      2.00000
     13     -32.1044      2.00000
     14     -32.1044      2.00000
     15     -31.8572      2.00000
     16     -31.8572      2.00000
     17      -4.6822      2.00000
     18      -4.6822      2.00000
     19      -3.8097      2.00000
     20      -3.8097      2.00000
     21      -1.7855      2.00000
     22      -1.7855      2.00000
     23      -1.2645      2.00000
     24      -1.2645      2.00000
     25      -0.6432      2.00000
     26      -0.6432      2.00000
     27       0.4330      2.00001
     28       0.4330      2.00001
     29       0.6368      2.06096
     30       0.6368      2.06097
     31       1.0877     -0.00012
     32       1.0878     -0.00012
     33       1.0897     -0.00011
     34       1.0897     -0.00011
     35       1.9845     -0.00000
     36       1.9845     -0.00000
     37       2.1552     -0.00000
     38       2.1552     -0.00000
     39       2.3982     -0.00000
     40       2.3982     -0.00000
     41       2.6373     -0.00000
     42       2.6373     -0.00000
     43       2.7951      0.00000
     44       2.7951      0.00000
     45       3.6212      0.00000
     46       3.6212      0.00000
     47       4.2386      0.00000
     48       4.2386      0.00000
     49       4.9953      0.00000
     50       4.9953      0.00000
     51       6.2904      0.00000
     52       6.2904      0.00000
     53       6.7991      0.00000
     54       6.7991      0.00000
     55       7.8339      0.00000
     56       7.8340      0.00000
     57       7.8824      0.00000
     58       7.8827      0.00000
     59       8.7996      0.00000
     60       8.8001      0.00000
     61       9.1696      0.00000
     62       9.1709      0.00000
     63       9.3587      0.00000
     64       9.3601      0.00000

 soft charge-density along one line, spin component           1
         0         1         2         3         4         5         6         7         8         9
 total charge-density along one line

------------------------ aborting loop because EDIFF is reached ----------------------------------------

  FORCE on cell =-STRESS in cart. coord.  units (eV):
  Direction    XX          YY          ZZ          XY          YZ          ZX
  Alpha Z    57.49137    57.49137    57.49137
  Ewald   12023.65080 12681.79124-15060.09371     0.00000     0.00000     0.00000
  Hartree 13677.19508 14250.81413-12528.88016    -0.00000    -0.00000    -0.00000
  E(xc)    -286.72348  -286.14827  -286.76236    -0.00000     0.00000    -0.00000
  Local  -26418.26738-27659.10748 26874.50642     0.00000    -0.00000    -0.00000
  n-local   -41.66406   -60.60722   -60.76799    -8.03829    -0.00000     0.00000
  augment   241.93265   248.43584   245.12961    -0.00000     0.00000    -0.00000
  Kinetic   743.05181   760.57922   757.67644     9.95518     0.00000     0.00000
  Fock        0.00000     0.00000     0.00000     0.00000     0.00000     0.00000
  Total      -3.33322    -6.75118    -1.70039     0.00000     0.00000     0.00000
  in kB     -15.65229   -31.70249    -7.98478     0.00000     0.00000     0.00000

 VOLUME and BASIS-vectors are now :
  energy-cutoff  :      520.00
  volume of cell :      341.19
      direct lattice vectors                 reciprocal lattice vectors
     4.070300102  0.000000000  0.000000000     0.245682130  0.000000000  0.000000000
     0.000000000  3.993499994  0.000000000     0.000000000  0.250406912  0.000000000
     0.000000000  0.000000000 20.990200043     0.000000000  0.000000000  0.047641280

  length of vectors
     4.070300102  3.993499994 20.990200043     0.245682130  0.250406912  0.047641280

 FORCES acting on ions
    electron-ion (+dipol)            ewald-force                    non-local-force                 convergence-correction
   -.137E-13 0.610E-12 0.183E+04   0.227E-14 -.585E-14 -.183E+04   0.000E+00 0.000E+00 -.482E+01   -.145E-12 -.594E-13 -.383E-03
   -.717E-14 -.734E-14 0.625E+03   0.772E-14 0.180E-13 -.626E+03   0.000E+00 0.000E+00 0.131E+01   -.297E-13 0.961E-14 -.690E-03
   -.183E-15 0.121E-12 -.625E+03   0.325E-14 -.668E-14 0.626E+03   0.000E+00 0.000E+00 -.131E+01   0.432E-13 -.255E-13 0.689E-03
   0.558E-14 -.188E-12 -.183E+04   0.336E-14 -.178E-14 0.183E+04   0.000E+00 0.000E+00 0.482E+01   0.112E-12 -.304E-13 0.383E-03
   -.152E-13 -.311E-14 0.455E+03   -.159E-14 -.235E-14 -.453E+03   0.000E+00 0.000E+00 -.168E+01   0.107E-13 0.486E-15 -.844E-04
   -.164E-14 -.423E-13 0.154E+03   -.433E-14 -.645E-15 -.154E+03   0.000E+00 0.000E+00 -.388E+00   0.745E-14 -.986E-15 -.171E-03
   -.486E-14 -.266E-13 -.154E+03   -.177E-14 -.214E-14 0.154E+03   0.000E+00 0.000E+00 0.388E+00   -.211E-14 -.120E-14 0.171E-03
   -.186E-14 0.120E-13 -.455E+03   0.783E-15 -.204E-14 0.453E+03   0.000E+00 0.000E+00 0.168E+01   -.641E-14 0.296E-14 0.844E-04
   -.390E-13 0.476E-12 0.965E-03   0.968E-14 -.352E-14 0.227E-12   0.000E+00 0.000E+00 0.155E-14   -.951E-14 -.104E-12 -.643E-06

 POSITION                                       TOTAL-FORCE (eV/Angst)
      0.00000      1.99675      7.00002         0.000000      0.000000      0.393798
      0.00000      0.00000      8.99682         0.000000      0.000000     -0.110105
      0.00000      1.99675     10.99341         0.000000      0.000000      0.110105
      0.00000      0.00000     12.99021         0.000000      0.000000     -0.393798
      2.03515      0.00000      7.00002         0.000000      0.000000      0.036012
      2.03515      1.99675      8.99682         0.000000      0.000000     -0.340544
      2.03515      0.00000     10.99341         0.000000      0.000000      0.340544
      2.03515      1.99675     12.99021         0.000000      0.000000     -0.036012
    total drift:                               -0.000000      0.000000      0.000964

  FREE ENERGIE OF THE ION-ELECTRON SYSTEM (eV)
  free  energy   TOTEN  =       -46.17759872 eV

  energy  without entropy=      -46.17529086  energy(sigma->0) =      -46.17682944

 writing wavefunctions