 vasp.6.5.0 16Dec24 (build Apr 17 2025 17:55:45) complex

 executed on             LinuxIFC date 2025.06.03  18:38:55

 INCAR:
   SYSTEM = CaNi2
   ISTART = 0
   ICHARG = 2
   PREC = N
   LREAL = .FALSE.
   ENCUT = 520
   ALGO = N
   NELM = 500
   EDIFF = 1E-05
   IBRION = 1
   ISIF = 3
   NSW = 300
   EDIFFG = -0.01
   ISMEAR = 0
   SIGMA = 0.1

 POTCAR:    PAW_PBE Ti_sv 26Sep2005
 POTCAR:    PAW_PBE Al 04Jan2001
|           W    W    AA    RRRRR   N    N  II  N    N   GGGG   !!!           |
|           W    W   A  A   R    R  NN   N  II  NN   N  G    G  !!!           |
|           W    W  A    A  R    R  N N  N  II  N N  N  G       !!!           |
|           W WW W  AAAAAA  RRRRR   N  N N  II  N  N N  G  GGG   !            |
|           WW  WW  A    A  R   R   N   NN  II  N   NN  G    G                |
|           W    W  A    A  R    R  N    N  II  N    N   GGGG   !!!           |
|     For optimal performance we recommend to set                             |
|       NCORE = 2 up to number-of-cores-per-socket                            |
|     This setting can greatly improve the performance of VASP for DFT.       |
|     The default, NCORE=1 might be grossly inefficient on modern             |
|     multi-core architectures or massively parallel machines. Do your        |
|     Unfortunately you need to use the default for GW and RPA                |
|     calculations (for HF NCORE is supported but not extensively tested      |
|     yet).                                                                   |

   TITEL  = PAW_PBE Ti_sv 26Sep2005
   POMASS =   47.880; ZVAL   =   12.000    mass and valenz
   ENMAX  =  274.610; ENMIN  =  205.957 eV

   TITEL  = PAW_PBE Al 04Jan2001
   POMASS =   26.981; ZVAL   =    3.000    mass and valenz
   ENMAX  =  240.300; ENMIN  =  180.225 eV

  PAW_PBE Ti_sv 26Sep2005               :
  PAW_PBE Al 04Jan2001                  :

 POSCAR: Ti1 Al1
  positions in direct lattice

 exchange-correlation table for PE
   RHO(1)=    0.500       N(1)  =     2000
   RHO(2)=  100.500       N(2)  =     4000

 ion  position               nearest neighbor table
   1  0.000  0.000  0.000-   3 2.82   5 2.82   3 2.82   5 2.82  11 2.85  12 2.85  13 2.85  14 2.85
                            15 2.85  16 2.85   9 2.85  10 2.85
   2  0.000  0.000  0.500-   4 2.82   6 2.82   4 2.82   6 2.82  11 2.85  12 2.85  13 2.85  14 2.85
                            15 2.85  16 2.85   9 2.85  10 2.85
   3  0.000  0.500  0.000-   1 2.82   7 2.82   1 2.82   7 2.82  11 2.85  12 2.85  13 2.85  14 2.85
                            15 2.85  16 2.85   9 2.85  10 2.85
   4  0.000  0.500  0.500-   2 2.82   8 2.82   2 2.82   8 2.82  11 2.85  12 2.85  13 2.85  14 2.85
                            15 2.85  16 2.85   9 2.85  10 2.85
   5  0.500  0.000  0.000-   1 2.82   7 2.82   7 2.82   1 2.82  11 2.85  12 2.85  13 2.85  14 2.85
                            15 2.85  16 2.85   9 2.85  10 2.85
   6  0.500  0.000  0.500-   2 2.82   8 2.82   8 2.82   2 2.82  11 2.85  12 2.85  13 2.85  14 2.85
                            15 2.85  16 2.85   9 2.85  10 2.85
   7  0.500  0.500  0.000-   3 2.82   5 2.82   5 2.82   3 2.82  11 2.85  12 2.85  13 2.85  14 2.85
                            15 2.85  16 2.85   9 2.85  10 2.85
   8  0.500  0.500  0.500-   4 2.82   6 2.82   6 2.82   4 2.82  11 2.85  12 2.85  13 2.85  14 2.85
                            15 2.85  16 2.85   9 2.85  10 2.85
   9  0.250  0.250  0.250-  11 2.82  13 2.82  11 2.82  13 2.82   5 2.85   6 2.85   7 2.85   8 2.85
                             1 2.85   2 2.85   3 2.85   4 2.85
  10  0.250  0.250  0.750-  12 2.82  14 2.82  12 2.82  14 2.82   5 2.85   6 2.85   7 2.85   8 2.85
                             1 2.85   2 2.85   3 2.85   4 2.85
  11  0.250  0.750  0.250-   9 2.82  15 2.82   9 2.82  15 2.82   5 2.85   6 2.85   7 2.85   8 2.85
                             1 2.85   2 2.85   3 2.85   4 2.85
  12  0.250  0.750  0.750-  10 2.82  16 2.82  10 2.82  16 2.82   5 2.85   6 2.85   7 2.85   8 2.85
                             1 2.85   2 2.85   3 2.85   4 2.85
  13  0.750  0.250  0.250-   9 2.82  15 2.82  15 2.82   9 2.82   5 2.85   6 2.85   7 2.85   8 2.85
                             1 2.85   2 2.85   3 2.85   4 2.85
  14  0.750  0.250  0.750-  10 2.82  16 2.82  16 2.82  10 2.82   5 2.85   6 2.85   7 2.85   8 2.85
                             1 2.85   2 2.85   3 2.85   4 2.85
  15  0.750  0.750  0.250-  11 2.82  13 2.82  13 2.82  11 2.82   5 2.85   6 2.85   7 2.85   8 2.85
                             1 2.85   2 2.85   3 2.85   4 2.85
  16  0.750  0.750  0.750-  12 2.82  14 2.82  14 2.82  12 2.82   5 2.85   6 2.85   7 2.85   8 2.85
                             1 2.85   2 2.85   3 2.85   4 2.85

  LATTYP: Found a simple tetragonal cell.
 ALAT       =     5.6476373672
 C/A-ratio  =     1.4414285973

  Lattice vectors:

 A1 = (   5.6476373672,   0.0000000000,   0.0000000000)
 A2 = (   0.0000000000,   5.6476373672,   0.0000000000)
 A3 = (   0.0000000000,   0.0000000000,   8.1406660080)

Analysis of symmetry for initial positions (statically):
 Subroutine PRICEL returns following result:

[...]

   8 primitive cells build up your supercell.

 Routine SETGRP: Setting up the symmetry group for a
 simple tetragonal supercell.

 Subroutine GETGRP returns: Found 16 space group operations
 (whereof 16 operations were pure point group operations)
 out of a pool of 16 trial point group operations.

The static configuration has the point symmetry D_4h.

Analysis of symmetry for dynamics (positions and initial velocities):
 Subroutine PRICEL returns following result:

  LATTYP: Found a simple tetragonal cell.
 ALAT       =     2.8238186836
 C/A-ratio  =     1.4414285973

  Lattice vectors:

 A1 = (   2.8238186836,   0.0000000000,   0.0000000000)
 A2 = (   0.0000000000,   2.8238186836,   0.0000000000)
 A3 = (   0.0000000000,   0.0000000000,   4.0703330040)

   8 primitive cells build up your supercell.

 Routine SETGRP: Setting up the symmetry group for a
 simple tetragonal supercell.

 Subroutine GETGRP returns: Found 16 space group operations
 (whereof 16 operations were pure point group operations)
 out of a pool of 16 trial point group operations.

The dynamic configuration has the point symmetry D_4h.

 Subroutine INISYM returns: Found 16 space group operations
 (whereof 16 operations are pure point group operations),
 and found     8 'primitive' translations

                                     Primitive cell

  volume of cell :      32.4566

  direct lattice vectors                    reciprocal lattice vectors
     2.823818684  0.000000000  0.000000000     0.354130386  0.000000000  0.000000000
     0.000000000  2.823818684  0.000000000     0.000000000  0.354130386  0.000000000
     0.000000000  0.000000000  4.070333004     0.000000000  0.000000000  0.245680144

  length of vectors
     2.823818684  2.823818684  4.070333004     0.354130386  0.354130386  0.245680144

  position of ions in fractional coordinates (direct lattice)
     0.000000000  0.000000000  0.000000000
     0.500000000  0.500000000  0.500000000

  ion indices of the primitive-cell ions
   primitive index   ion index
                 1           1
                 2           9

 KPOINTS: K-Spacing Value to Generate K-Mesh: 0.03

Automatic generation of k-mesh.
 Grid dimensions read from file:
 generate k-points for:    6    6    4

 Generating k-lattice:

  Cartesian coordinates                     Fractional coordinates (reciprocal lattice)
     0.029510865  0.000000000  0.000000000     0.166666667  0.000000000  0.000000000
     0.000000000  0.029510865  0.000000000     0.000000000  0.166666667  0.000000000
     0.000000000  0.000000000  0.030710018     0.000000000  0.000000000  0.250000000

  Length of vectors
     0.029510865  0.029510865  0.030710018

  Shift w.r.t. Gamma in fractional coordinates (k-lattice)
     0.000000000  0.000000000  0.000000000

 Subroutine IBZKPT returns following result:

 Found     30 irreducible k-points:

 Following reciprocal coordinates:
            Coordinates               Weight
  0.000000  0.000000  0.000000      1.000000
  0.166667  0.000000  0.000000      4.000000
  0.333333  0.000000  0.000000      4.000000
  0.500000  0.000000  0.000000      2.000000
  0.166667  0.166667  0.000000      4.000000
  0.333333  0.166667  0.000000      8.000000
  0.500000  0.166667  0.000000      4.000000
  0.333333  0.333333  0.000000      4.000000
  0.500000  0.333333  0.000000      4.000000
  0.500000  0.500000  0.000000      1.000000
  0.000000  0.000000  0.250000      2.000000
  0.166667  0.000000  0.250000      8.000000
  0.333333  0.000000  0.250000      8.000000
  0.500000  0.000000  0.250000      4.000000
  0.166667  0.166667  0.250000      8.000000
  0.333333  0.166667  0.250000     16.000000
  0.500000  0.166667  0.250000      8.000000
  0.333333  0.333333  0.250000      8.000000
  0.500000  0.333333  0.250000      8.000000
  0.500000  0.500000  0.250000      2.000000
  0.000000  0.000000  0.500000      1.000000
  0.166667  0.000000  0.500000      4.000000
  0.333333  0.000000  0.500000      4.000000
  0.500000  0.000000  0.500000      2.000000
  0.166667  0.166667  0.500000      4.000000
  0.333333  0.166667  0.500000      8.000000
  0.500000  0.166667  0.500000      4.000000
  0.333333  0.333333  0.500000      4.000000
  0.500000  0.333333  0.500000      4.000000
  0.500000  0.500000  0.500000      1.000000

 Following cartesian coordinates:
            Coordinates               Weight
  0.000000  0.000000  0.000000      1.000000
  0.029511  0.000000  0.000000      4.000000
  0.059022  0.000000  0.000000      4.000000
  0.088533  0.000000  0.000000      2.000000
  0.029511  0.029511  0.000000      4.000000
  0.059022  0.029511  0.000000      8.000000
  0.088533  0.029511  0.000000      4.000000
  0.059022  0.059022  0.000000      4.000000
  0.088533  0.059022  0.000000      4.000000
  0.088533  0.088533  0.000000      1.000000
  0.000000  0.000000  0.030710      2.000000
  0.029511  0.000000  0.030710      8.000000
  0.059022  0.000000  0.030710      8.000000
  0.088533  0.000000  0.030710      4.000000
  0.029511  0.029511  0.030710      8.000000
  0.059022  0.029511  0.030710     16.000000
  0.088533  0.029511  0.030710      8.000000
  0.059022  0.059022  0.030710      8.000000
  0.088533  0.059022  0.030710      8.000000
  0.088533  0.088533  0.030710      2.000000
  0.000000  0.000000  0.061420      1.000000
  0.029511  0.000000  0.061420      4.000000
  0.059022  0.000000  0.061420      4.000000
  0.088533  0.000000  0.061420      2.000000
  0.029511  0.029511  0.061420      4.000000
  0.059022  0.029511  0.061420      8.000000
  0.088533  0.029511  0.061420      4.000000
  0.059022  0.059022  0.061420      4.000000
  0.088533  0.059022  0.061420      4.000000
  0.088533  0.088533  0.061420      1.000000

 SYSTEM =  CaNi2
 POSCAR =  Ti1 Al1

 Startparameter for this run:
   NWRITE =      2    write-flag & timer
   PREC   = n         normal or accurate (medium, high low for compatibility)
   ISTART =      0    job   : 0-new  1-cont  2-samecut
   ICHARG =      2    charge: 1-file 2-atom 10-const
   ISPIN  =      1    spin polarized calculation?
[...]
  augment   494.02132   494.02132   471.43868     0.00000    -0.00000     0.00000
  Kinetic  1532.90756  1570.10827  1482.62503     1.60773    -2.28266    -2.42404
  Fock        0.00000     0.00000     0.00000     0.00000     0.00000     0.00000
  Total       0.05801     0.05801    -0.34456     0.00000     0.00000     0.00000
  in kB       0.35795     0.35795    -2.12610     0.00000     0.00000     0.00000

 VOLUME and BASIS-vectors are now :
  energy-cutoff  :      520.00
  volume of cell :      259.65
      direct lattice vectors                 reciprocal lattice vectors
     5.647637367  0.000000000  0.000000000     0.177065193  0.000000000  0.000000000
     0.000000000  5.647637367  0.000000000     0.000000000  0.177065193  0.000000000
     0.000000000  0.000000000  8.140666008     0.000000000  0.000000000  0.122840072

[...]

 FORCES acting on ions
    electron-ion (+dipol)            ewald-force                    non-local-force                 convergence-correction
   0.673E-16 0.138E-14 -.290E-13   0.263E-13 -.945E-14 -.178E-13   0.165E-23 0.827E-24 0.331E-23   -.129E-14 -.558E-13 -.293E-12
   0.678E-16 0.138E-14 0.108E-11   0.263E-13 -.912E-14 0.178E-13   -.165E-23 0.000E+00 -.682E-23   -.964E-14 -.221E-13 0.315E-12
   0.674E-16 0.395E-12 -.415E-13   0.303E-13 0.134E-13 -.178E-13   0.000E+00 0.496E-23 -.476E-23   -.116E-13 0.479E-13 -.268E-12
   0.678E-16 0.395E-12 0.107E-11   0.303E-13 0.134E-13 0.178E-13   0.165E-23 0.000E+00 -.165E-23   -.261E-13 0.127E-13 0.315E-12
   0.394E-12 0.291E-14 -.680E-11   0.528E-14 -.155E-14 -.178E-13   -.248E-23 0.000E+00 0.000E+00   -.168E-13 -.507E-13 -.331E-12
   0.394E-12 0.291E-14 0.429E-11   -.262E-14 -.122E-14 0.178E-13   0.165E-23 0.331E-23 0.000E+00   -.855E-14 0.207E-14 0.349E-12
   0.394E-12 0.397E-12 -.200E-11   -.262E-14 0.945E-14 -.178E-13   -.248E-23 0.827E-24 0.165E-23   -.220E-14 0.461E-13 -.281E-12
   0.394E-12 0.397E-12 0.252E-11   -.262E-14 0.945E-14 0.178E-13   -.310E-23 0.331E-23 0.000E+00   0.142E-14 -.314E-14 0.338E-12
   -.406E-14 -.119E-13 -.283E-12   -.110E-13 -.874E-14 -.912E-15   0.165E-23 0.579E-23 -.827E-24   -.137E-14 0.299E-14 0.188E-13
   -.440E-14 -.113E-13 -.302E-12   -.109E-13 -.874E-14 0.115E-14   0.662E-23 0.662E-23 -.827E-24   0.297E-14 -.480E-15 -.220E-13
   -.243E-14 -.101E-13 -.252E-12   -.148E-13 -.372E-14 -.101E-14   0.331E-23 -.331E-23 0.186E-23   -.891E-15 -.298E-14 0.151E-13
   -.217E-14 -.776E-14 -.272E-12   0.965E-15 -.372E-14 0.105E-14   0.662E-23 -.132E-22 0.827E-24   0.335E-14 0.532E-15 -.182E-13
   -.990E-14 0.629E-12 0.476E-12   -.207E-13 -.823E-14 -.105E-14   -.662E-23 0.331E-23 -.124E-23   0.186E-14 0.343E-14 0.198E-13
   -.996E-14 -.258E-13 0.771E-12   -.128E-13 -.822E-14 0.101E-14   -.331E-23 -.414E-24 -.227E-23   -.248E-14 -.199E-15 -.228E-13
   -.915E-14 0.453E-12 0.871E-13   -.128E-13 -.716E-14 -.115E-14   -.331E-23 -.993E-23 0.186E-23   0.139E-14 -.339E-14 0.158E-13
   -.968E-14 0.463E-12 0.437E-12   -.127E-13 -.715E-14 0.912E-15   -.703E-23 -.993E-23 -.827E-24   -.288E-14 0.281E-15 -.187E-13
   0.153E-11 0.307E-11 0.747E-12   0.158E-13 -.313E-13 0.197E-30   -.682E-23 -.786E-23 -.972E-23   -.729E-13 -.228E-13 0.131E-12

 POSITION                                       TOTAL-FORCE (eV/Angst)
      0.00000      0.00000      0.00000         0.000000      0.000000     -0.000000
      0.00000      0.00000      4.07033         0.000000      0.000000      0.000000
      0.00000      2.82382      0.00000        -0.000000     -0.000000      0.000000
      0.00000      2.82382      4.07033         0.000000     -0.000000      0.000000
      2.82382      0.00000      0.00000         0.000000     -0.000000     -0.000000
      2.82382      0.00000      4.07033         0.000000     -0.000000      0.000000
      2.82382      2.82382      0.00000        -0.000000     -0.000000     -0.000000
      2.82382      2.82382      4.07033         0.000000      0.000000     -0.000000
      1.41191      1.41191      2.03517         0.000000     -0.000000      0.000000
      1.41191      1.41191      6.10550        -0.000000      0.000000     -0.000000
      1.41191      4.23573      2.03517        -0.000000      0.000000     -0.000000
      1.41191      4.23573      6.10550        -0.000000     -0.000000     -0.000000
      4.23573      1.41191      2.03517         0.000000      0.000000     -0.000000
      4.23573      1.41191      6.10550        -0.000000     -0.000000     -0.000000
      4.23573      4.23573      2.03517         0.000000      0.000000      0.000000
      4.23573      4.23573      6.10550         0.000000      0.000000      0.000000
    total drift:                                0.000000      0.000000      0.000000

  FREE ENERGIE OF THE ION-ELECTRON SYSTEM (eV)
  free  energy   TOTEN  =       -99.17505479 eV

  energy  without entropy=      -99.11137042  energy(sigma->0) =      -99.14321261

 Quasi-Newton relaxation of ions (Broydens 2nd method)
  g(Force)  = 0.434E-58   g(Stress)= 0.378E-03

 Reset! Starting new Quasi-Newton update for ions

[...]

  energy  without entropy=      -99.11176376  energy(sigma->0) =      -99.14352047
 d Force = 0.0000000E+00[ 0.000E+00, 0.000E+00]  d Energy = 0.2223950E-03-0.222E-03
 d Force = 0.0000000E+00[ 0.000E+00, 0.000E+00]  d Ewald  = 0.3409744E+01-0.341E+01

[...]

 retain information from N=  1 steps
 eigenvalues of (default step * inverse Hessian matrix)
  average eigenvalue of G=   1.8899
 eigenvalue spectrum of G is  1.8899

--------------------------------------- Ionic step        3  -------------------------------------------

[...]

 eigenvalue-minimisations  :  8272
 total energy-change (2. order) : 0.3409314E-04  (-0.1045358E-04)
 number of electron     119.9999794 magnetization
 augmentation part       29.4171786 magnetization

 Broyden mixing:
  rms(total) = 0.93611E-03    rms(broyden)= 0.93603E-03
  rms(prec ) = 0.11345E-02
  weight for this iteration     100.00

 eigenvalues of (default mixing * dielectric matrix)
  average eigenvalue GAMMA=   1.5040
  1.8843  1.8843  0.7433

[...]

--------------------------------------- Iteration      3(   5)  ---------------------------------------

 eigenvalue-minimisations  :  4840
 total energy-change (2. order) :-0.4401300E-06  (-0.8856340E-06)
 number of electron     119.9999794 magnetization
 augmentation part       29.4171786 magnetization

 Free energy of the ion-electron system (eV)
  alpha Z        PSCENC =       302.45033193
  Ewald energy   TEWEN  =     -8685.12768637
  -Hartree energ DENC   =     -3928.95354321
  -exchange      EXHF   =         0.00000000
  -V(xc)+E(xc)   XCENC  =       279.26993190
  PAW double counting   =     13272.95515966   -12834.16041498
  entropy T*S    EENTRO =        -0.06339308
  eigenvalues    EBANDS =     -1638.53330521
  atomic energy  EATOM  =     13132.98755513
  Solvation  Ediel_sol  =         0.00000000
  free energy    TOTEN  =       -99.17536423 eV

  energy without entropy =      -99.11197115  energy(sigma->0) =      -99.14366769

 average (electrostatic) potential at core
  the test charge radii are     1.0397  1.0406
  (the norm of the test charge is              1.0000)
       1 -72.3055       2 -72.3055       3 -72.3055       4 -72.3055       5 -72.3055
       6 -72.3055       7 -72.3055       8 -72.3055       9 -71.3156      10 -71.3156
      11 -71.3156      12 -71.3156      13 -71.3156      14 -71.3156      15 -71.3156
      16 -71.3156

 E-fermi :   8.3131     XC(G=0): -11.0389     alpha+bet :-16.2322

 val. band max:        8.3003797438   @ k =   0.5000   0.5000   0.5000
 cond. band min:       8.3366069516   @ k =   0.5000   0.3333   0.2500
 fundamental gap:      0.0362272079
 Fermi energy:         8.3131013674

[...]

 k-point    30 :       0.5000    0.5000    0.5000
  band No.  band energies     occupation
      1     -48.2577      2.00000
      2     -48.2577      2.00000
      3     -48.2577      2.00000
      4     -48.2577      2.00000
      5     -48.2577      2.00000
      6     -48.2577      2.00000
      7     -48.2577      2.00000
      8     -48.2577      2.00000
      9     -24.6596      2.00000
     10     -24.6596      2.00000
     11     -24.6596      2.00000
     12     -24.6596      2.00000
     13     -24.6596      2.00000
     14     -24.6596      2.00000
     15     -24.6596      2.00000
     16     -24.6596      2.00000
     17     -24.4872      2.00000
     18     -24.4872      2.00000
     19     -24.4872      2.00000
     20     -24.4872      2.00000
     21     -24.4872      2.00000
     22     -24.4872      2.00000
     23     -24.4872      2.00000
     24     -24.4872      2.00000
     25     -24.4731      2.00000
     26     -24.4731      2.00000
     27     -24.4731      2.00000
     28     -24.4731      2.00000
     29     -24.4731      2.00000
     30     -24.4731      2.00000
     31     -24.4731      2.00000
     32     -24.4731      2.00000
     33       2.0075      2.00000
     34       2.0075      2.00000
     35       2.0075      2.00000
     36       2.0075      2.00000
     37       2.0075      2.00000
     38       2.0075      2.00000
     39       2.0075      2.00000
     40       2.0075      2.00000
     41       6.2446      2.00000
     42       6.2446      2.00000
     43       6.2446      2.00000
     44       6.2446      2.00000
     45       6.2446      2.00000
     46       6.2446      2.00000
     47       6.2446      2.00000
     48       6.2446      2.00000
     49       7.9180      2.00000
     50       7.9180      2.00000
     51       7.9180      2.00000
     52       7.9180      2.00000
     53       7.9180      2.00000
     54       7.9180      2.00000
     55       7.9180      2.00000
     56       7.9180      2.00000
     57       8.3004      1.14278
     58       8.3004      1.14278
     59       8.3004      1.14278
     60       8.3004      1.14278
[...]
     74       9.9848      0.00000
     75       9.9848      0.00000
     76       9.9848      0.00000
     77       9.9848      0.00000
     78       9.9848      0.00000
     79       9.9848      0.00000
     80       9.9848      0.00000
     81      11.6928      0.00000
     82      11.6928      0.00000
     83      11.6928      0.00000
     84      11.6928      0.00000
     85      11.6928      0.00000
     86      11.6928      0.00000
     87      11.6928      0.00000
     88      11.6928      0.00000

 soft charge-density along one line, spin component           1
         0         1         2         3         4         5         6         7         8         9
 total charge-density along one line

------------------------ aborting loop because EDIFF is reached ----------------------------------------

  FORCE on cell =-STRESS in cart. coord.  units (eV):
  Direction    XX          YY          ZZ          XY          YZ          ZX
  Alpha Z   302.45033   302.45033   302.45033
  Ewald   -2316.54182 -2316.54182 -4052.05886    -0.00000    -0.00000    -0.00000
  Hartree  1816.02413  1816.02413   296.98841    -0.00000    -0.00000    -0.00000
  E(xc)    -576.54336  -576.54336  -578.22991     0.00000     0.00000    -0.00000
  Local   -1139.90613 -1139.90613  2152.64335    -0.00000    -0.00000     0.00000
  n-local  -113.18820  -148.31125   -76.21078    -3.34624     0.80638     1.87965
  augment   493.94381   493.94381   471.44833     0.00000     0.00000     0.00000
  Kinetic  1533.12654  1569.78809  1483.07772     1.60376    -2.28881    -2.42194
  Fock        0.00000     0.00000     0.00000     0.00000     0.00000     0.00000
  Total       0.13455     0.13455     0.10859     0.00000     0.00000    -0.00000
  in kB       0.83097     0.83097     0.67062     0.00000     0.00000    -0.00000

 VOLUME and BASIS-vectors are now :
  energy-cutoff  :      520.00
  volume of cell :      259.42
      direct lattice vectors                 reciprocal lattice vectors
     5.650681772  0.000000000  0.000000000     0.176969796  0.000000000  0.000000000
     0.000000000  5.650681772  0.000000000     0.000000000  0.176969796 -0.000000000
     0.000000000  0.000000000  8.124629189     0.000000000 -0.000000000  0.123082540

  length of vectors
     5.650681772  5.650681772  8.124629189     0.176969796  0.176969796  0.123082540

 FORCES acting on ions
    electron-ion (+dipol)            ewald-force                    non-local-force                 convergence-correction
   0.560E-14 -.108E-14 -.482E-13   0.101E-13 -.178E-14 -.178E-13   -.258E-24 -.931E-24 -.496E-23   0.275E-13 0.448E-14 -.194E-12
   0.560E-14 -.108E-14 0.106E-11   0.102E-13 -.178E-14 0.178E-13   0.124E-23 0.000E+00 0.827E-24   0.350E-13 -.162E-14 0.220E-12
   0.560E-14 0.393E-12 -.522E-13   0.101E-13 -.613E-14 -.178E-13   -.207E-24 0.165E-23 0.000E+00   0.282E-13 0.606E-14 -.192E-12
   0.560E-14 0.393E-12 0.105E-11   0.102E-13 -.613E-14 0.178E-13   -.827E-24 0.000E+00 0.827E-24   0.219E-13 0.109E-14 0.225E-12
   0.400E-12 0.269E-14 -.680E-11   -.377E-13 0.613E-14 -.178E-13   0.243E-23 0.000E+00 0.827E-24   -.588E-14 -.170E-13 -.199E-12
   0.400E-12 0.269E-14 0.431E-11   -.378E-13 0.613E-14 0.178E-13   0.414E-24 0.124E-23 0.827E-24   -.452E-14 -.250E-13 0.196E-12
   0.400E-12 0.397E-12 -.199E-11   -.377E-13 0.178E-14 -.178E-13   -.827E-24 0.414E-24 0.114E-23   0.359E-14 -.480E-14 -.201E-12
   0.400E-12 0.397E-12 0.252E-11   -.378E-13 0.178E-14 0.178E-13   -.827E-24 0.248E-23 -.124E-23   0.405E-14 -.663E-14 0.191E-12
   0.137E-14 -.176E-13 -.273E-12   0.207E-13 0.899E-16 -.131E-14   -.827E-24 0.165E-23 0.827E-24   -.891E-15 0.890E-15 -.176E-13
   0.896E-15 -.167E-13 -.311E-12   0.208E-13 0.849E-16 0.139E-14   0.827E-24 0.000E+00 0.827E-24   -.202E-14 0.815E-15 0.157E-13
   0.200E-14 -.418E-14 -.243E-12   0.207E-13 -.389E-15 -.132E-14   -.372E-23 0.000E+00 -.207E-23   -.692E-15 -.904E-15 -.174E-13
   0.191E-14 -.221E-14 -.281E-12   0.208E-13 -.394E-15 0.138E-14   0.827E-24 -.248E-23 -.269E-23   -.170E-14 -.848E-15 0.157E-13
   -.160E-13 0.622E-12 0.483E-12   0.700E-14 0.504E-15 -.138E-14   0.000E+00 0.000E+00 0.103E-23   0.128E-14 0.907E-15 -.177E-13
   -.152E-13 -.313E-13 0.759E-12   0.687E-14 0.499E-15 0.132E-14   0.159E-23 0.496E-23 -.248E-23   0.241E-14 0.953E-15 0.156E-13
   -.159E-13 0.457E-12 0.955E-13   0.699E-14 0.251E-16 -.139E-14   0.000E+00 -.496E-23 0.165E-23   0.107E-14 -.887E-15 -.176E-13
   -.164E-13 0.468E-12 0.424E-12   0.686E-14 0.201E-16 0.131E-14   0.165E-23 0.827E-24 0.827E-24   0.207E-14 -.947E-15 0.156E-13
   0.156E-11 0.306E-11 0.707E-12   0.114E-15 0.440E-15 0.393E-23   0.149E-23 0.486E-23 -.383E-23   0.111E-12 -.434E-13 0.375E-13

 POSITION                                       TOTAL-FORCE (eV/Angst)
      0.00000      0.00000     -0.00000        -0.000000      0.000000     -0.000000
      0.00000      0.00000      4.06231        -0.000000     -0.000000      0.000000
      0.00000      2.82534      0.00000        -0.000000     -0.000000     -0.000000
      0.00000      2.82534      4.06231         0.000000     -0.000000     -0.000000
      2.82534     -0.00000      0.00000        -0.000000     -0.000000     -0.000000
      2.82534      0.00000      4.06231         0.000000      0.000000      0.000000
      2.82534      2.82534      0.00000        -0.000000     -0.000000     -0.000000
      2.82534      2.82534      4.06231         0.000000     -0.000000      0.000000
      1.41267      1.41267      2.03116        -0.000000      0.000000      0.000000
      1.41267      1.41267      6.09347        -0.000000     -0.000000      0.000000
      1.41267      4.23801      2.03116        -0.000000      0.000000      0.000000
      1.41267      4.23801      6.09347        -0.000000      0.000000      0.000000
      4.23801      1.41267      2.03116         0.000000      0.000000      0.000000
      4.23801      1.41267      6.09347         0.000000      0.000000      0.000000
      4.23801      4.23801      2.03116        -0.000000     -0.000000      0.000000
      4.23801      4.23801      6.09347         0.000000      0.000000      0.000000
    total drift:                                0.000000      0.000000      0.000000

  FREE ENERGIE OF THE ION-ELECTRON SYSTEM (eV)
  free  energy   TOTEN  =       -99.17536423 eV

  energy  without entropy=      -99.11197115  energy(sigma->0) =      -99.14366769
 d Force = 0.0000000E+00[ 0.000E+00, 0.000E+00]  d Energy = 0.8703802E-04-0.870E-04
 d Force = 0.0000000E+00[ 0.000E+00, 0.000E+00]  d Ewald  = 0.2095095E+01-0.210E+01

 Quasi-Newton relaxation of ions (Broydens 2nd method)
  g(Force)  = 0.588E-58   g(Stress)= 0.145E-03

 retain information from N=  2 steps
 eigenvalues of (default step * inverse Hessian matrix)
  average eigenvalue of G=   3.0398
 eigenvalue spectrum of G is  4.7768  1.3027

 reached required accuracy - stopping structural energy minimisation
 writing wavefunctions