 vasp.6.5.0 16Dec24 (build Apr 17 2025 17:55:45) complex

 executed on             LinuxIFC date 2025.06.04  10:18:39

 INCAR:
   ISTART = 0
   ICHARG = 2
   PREC = N
   LREAL = .FALSE.
   ENCUT = 520
   ALGO = N
   NELM = 500
   EDIFF = 1E-05
   IBRION = -1
   ISIF = 3
   NSW = 0
   EDIFFG = -0.01
   ISMEAR = 1
   SIGMA = 0.1

 POTCAR:    PAW_PBE Ga_d 06Jul2010
 POTCAR:    PAW_PBE Ti_sv 26Sep2005
 POTCAR:    PAW_PBE Al 04Jan2001
|           W    W    AA    RRRRR   N    N  II  N    N   GGGG   !!!           |
|           W    W   A  A   R    R  NN   N  II  NN   N  G    G  !!!           |
|           W    W  A    A  R    R  N N  N  II  N N  N  G       !!!           |
|           W WW W  AAAAAA  RRRRR   N  N N  II  N  N N  G  GGG   !            |
|           WW  WW  A    A  R   R   N   NN  II  N   NN  G    G                |
|           W    W  A    A  R    R  N    N  II  N    N   GGGG   !!!           |
|     For optimal performance we recommend to set                             |
|       NCORE = 2 up to number-of-cores-per-socket                            |
|     This setting can greatly improve the performance of VASP for DFT.       |
|     The default, NCORE=1 might be grossly inefficient on modern             |
|     multi-core architectures or massively parallel machines. Do your        |
|     Unfortunately you need to use the default for GW and RPA                |
|     calculations (for HF NCORE is supported but not extensively tested      |
|     yet).                                                                   |

   TITEL  = PAW_PBE Ga_d 06Jul2010
   POMASS =   69.723; ZVAL   =   13.000    mass and valenz
   ENMAX  =  282.691; ENMIN  =  212.018 eV

   TITEL  = PAW_PBE Ti_sv 26Sep2005
   POMASS =   47.880; ZVAL   =   12.000    mass and valenz
   ENMAX  =  274.610; ENMIN  =  205.957 eV

   TITEL  = PAW_PBE Al 04Jan2001
   POMASS =   26.981; ZVAL   =    3.000    mass and valenz
   ENMAX  =  240.300; ENMIN  =  180.225 eV

  PAW_PBE Ga_d 06Jul2010                :
  PAW_PBE Ti_sv 26Sep2005               :
  PAW_PBE Al 04Jan2001                  :

 POSCAR: Ti1 Al1
  positions in direct lattice
  velocities in cartesian coordinates

 exchange-correlation table for PE
   RHO(1)=    0.500       N(1)  =     2000
   RHO(2)=  100.500       N(2)  =     4000

 ion  position               nearest neighbor table
   1  0.000  0.000  0.000-   3 2.80   5 2.80   3 2.80   5 2.80  11 2.88  12 2.88  13 2.88  14 2.88
                            15 2.88  16 2.88   9 2.88  10 2.88
   2  0.000  0.000  0.500-   4 2.80   6 2.80   4 2.80   6 2.80  11 2.85  12 2.85  13 2.85  14 2.85
                            15 2.85  16 2.85   9 2.85  10 2.85
   3  0.000  0.500  0.000-   1 2.80   7 2.80   1 2.80   7 2.80  11 2.87  12 2.87  13 2.87  14 2.87
                            15 2.87  16 2.87   9 2.87  10 2.87
   4  0.000  0.500  0.500-   2 2.80   8 2.80   2 2.80   8 2.80  11 2.85  12 2.85  13 2.85  14 2.85
                            15 2.85  16 2.85   9 2.85  10 2.85
   5  0.500  0.000  0.000-   1 2.80   7 2.80   7 2.80   1 2.80  11 2.87  12 2.87  13 2.87  14 2.87
                            15 2.87  16 2.87   9 2.87  10 2.87
   6  0.500  0.000  0.500-   2 2.80   8 2.80   8 2.80   2 2.80  11 2.85  12 2.85  13 2.85  14 2.85
                            15 2.85  16 2.85   9 2.85  10 2.85
   7  0.500  0.500  0.000-   3 2.80   5 2.80   5 2.80   3 2.80  11 2.87  12 2.87  13 2.87  14 2.87
                            15 2.87  16 2.87   9 2.87  10 2.87
   8  0.500  0.500  0.500-   4 2.80   6 2.80   6 2.80   4 2.80  11 2.84  12 2.84  13 2.84  14 2.84
                            15 2.84  16 2.84   9 2.84  10 2.84
   9  0.251  0.251  0.252-  11 2.79  13 2.79  11 2.81  13 2.81   8 2.84   6 2.85   4 2.85   2 2.85
                             7 2.87   5 2.87   3 2.87   1 2.88
  10  0.251  0.251  0.748-  12 2.79  14 2.79  12 2.81  14 2.81   8 2.84   6 2.85   4 2.85   2 2.85
                             7 2.87   5 2.87   3 2.87   1 2.88
  11  0.251  0.749  0.252-   9 2.79  15 2.79   9 2.81  15 2.81   8 2.84   4 2.85   6 2.85   2 2.85
                             7 2.87   3 2.87   5 2.87   1 2.88
  12  0.251  0.749  0.748-  10 2.79  16 2.79  10 2.81  16 2.81   8 2.84   4 2.85   6 2.85   2 2.85
                             7 2.87   3 2.87   5 2.87   1 2.88
  13  0.749  0.251  0.252-   9 2.79  15 2.79   9 2.81  15 2.81   8 2.84   4 2.85   6 2.85   2 2.85
                             7 2.87   3 2.87   5 2.87   1 2.88
  14  0.749  0.251  0.748-  10 2.79  16 2.79  10 2.81  16 2.81   8 2.84   4 2.85   6 2.85   2 2.85
                             7 2.87   3 2.87   5 2.87   1 2.88
  15  0.749  0.749  0.252-  11 2.79  13 2.79  11 2.81  13 2.81   8 2.84   6 2.85   4 2.85   2 2.85
                             7 2.87   5 2.87   3 2.87   1 2.88
  16  0.749  0.749  0.748-  12 2.79  14 2.79  12 2.81  14 2.81   8 2.84   6 2.85   4 2.85   2 2.85
                             7 2.87   5 2.87   3 2.87   1 2.88

  LATTYP: Found a simple tetragonal cell.
 ALAT       =     5.6069519684
 C/A-ratio  =     1.4699085315

  Lattice vectors:

 A1 = (   5.6069519684,   0.0000000000,   0.0000000000)
 A2 = (   0.0000000000,   5.6069519684,   0.0000000000)
 A3 = (   0.0000000000,   0.0000000000,   8.2417065342)

Analysis of symmetry for initial positions (statically):
 Subroutine PRICEL returns:
 Original cell was already a primitive cell.

 Routine SETGRP: Setting up the symmetry group for a
 simple tetragonal supercell.

 Subroutine GETGRP returns: Found 16 space group operations
 (whereof 16 operations were pure point group operations)
 out of a pool of 16 trial point group operations.

The static configuration has the point symmetry D_4h.

Analysis of symmetry for dynamics (positions and initial velocities):
 Subroutine PRICEL returns:
 Original cell was already a primitive cell.

 Routine SETGRP: Setting up the symmetry group for a
 simple tetragonal supercell.

 Subroutine GETGRP returns: Found 16 space group operations
 (whereof 16 operations were pure point group operations)
 out of a pool of 16 trial point group operations.

The dynamic configuration has the point symmetry D_4h.

 Subroutine INISYM returns: Found 16 space group operations
 (whereof 16 operations are pure point group operations),
 and found     1 'primitive' translations

                                     Primitive cell

  volume of cell :     259.1020

  direct lattice vectors                    reciprocal lattice vectors
     5.606951968  0.000000000  0.000000000     0.178350021  0.000000000  0.000000000
     0.000000000  5.606951968  0.000000000     0.000000000  0.178350021  0.000000000
     0.000000000  0.000000000  8.241706534     0.000000000  0.000000000  0.121334095

  length of vectors
     5.606951968  5.606951968  8.241706534     0.178350021  0.178350021  0.121334095

  position of ions in fractional coordinates (direct lattice)
     0.000000000  0.000000000  0.000000000
     0.000000000  0.000000000  0.500000000
     0.000000000  0.500000000  0.000000000
     0.000000000  0.500000000  0.500000000
     0.500000000  0.000000000  0.000000000
     0.500000000  0.000000000  0.500000000
     0.500000000  0.500000000  0.000000000
     0.500000000  0.500000000  0.500000000
     0.250946882  0.250946882  0.252071225
     0.250946882  0.250946882  0.747928775
     0.250946882  0.749053118  0.252071225
     0.250946882  0.749053118  0.747928775
     0.749053118  0.250946882  0.252071225
     0.749053118  0.250946882  0.747928775
     0.749053118  0.749053118  0.252071225
     0.749053118  0.749053118  0.747928775

  ion indices of the primitive-cell ions
   primitive index   ion index
                 1           1
                 2           2
                 3           3
                 4           4
                 5           5
                 6           6
                 7           7
                 8           8
                 9           9
                10          10
                11          11
                12          12
                13          13
                14          14
                15          15
                16          16

 KPOINTS: K-Spacing Value to Generate K-Mesh: 0.03

Automatic generation of k-mesh.
 Grid dimensions read from file:
 generate k-points for:    6    6    4

 Generating k-lattice:

  Cartesian coordinates                     Fractional coordinates (reciprocal lattice)
     0.029725003  0.000000000  0.000000000     0.166666667  0.000000000  0.000000000
     0.000000000  0.029725003  0.000000000     0.000000000  0.166666667  0.000000000
     0.000000000  0.000000000  0.030333524     0.000000000  0.000000000  0.250000000

  Length of vectors
     0.029725003  0.029725003  0.030333524

  Shift w.r.t. Gamma in fractional coordinates (k-lattice)
     0.000000000  0.000000000  0.000000000

 Subroutine IBZKPT returns following result:

 Found     30 irreducible k-points:

 Following reciprocal coordinates:
            Coordinates               Weight
  0.000000  0.000000  0.000000      1.000000
  0.166667  0.000000  0.000000      4.000000
  0.333333  0.000000  0.000000      4.000000
  0.500000  0.000000  0.000000      2.000000
  0.166667  0.166667  0.000000      4.000000
  0.333333  0.166667  0.000000      8.000000
  0.500000  0.166667  0.000000      4.000000
  0.333333  0.333333  0.000000      4.000000
  0.500000  0.333333  0.000000      4.000000
  0.500000  0.500000  0.000000      1.000000
  0.000000  0.000000  0.250000      2.000000
  0.166667  0.000000  0.250000      8.000000
  0.333333  0.000000  0.250000      8.000000
  0.500000  0.000000  0.250000      4.000000
  0.166667  0.166667  0.250000      8.000000
  0.333333  0.166667  0.250000     16.000000
  0.500000  0.166667  0.250000      8.000000
  0.333333  0.333333  0.250000      8.000000
  0.500000  0.333333  0.250000      8.000000
  0.500000  0.500000  0.250000      2.000000
  0.000000  0.000000  0.500000      1.000000
  0.166667  0.000000  0.500000      4.000000
  0.333333  0.000000  0.500000      4.000000
  0.500000  0.000000  0.500000      2.000000
  0.166667  0.166667  0.500000      4.000000
  0.333333  0.166667  0.500000      8.000000
  0.500000  0.166667  0.500000      4.000000
  0.333333  0.333333  0.500000      4.000000
  0.500000  0.333333  0.500000      4.000000
  0.500000  0.500000  0.500000      1.000000

 Following cartesian coordinates:
            Coordinates               Weight
  0.000000  0.000000  0.000000      1.000000
  0.029725  0.000000  0.000000      4.000000
  0.059450  0.000000  0.000000      4.000000
  0.089175  0.000000  0.000000      2.000000
  0.029725  0.029725  0.000000      4.000000
  0.059450  0.029725  0.000000      8.000000
  0.089175  0.029725  0.000000      4.000000
  0.059450  0.059450  0.000000      4.000000
  0.089175  0.059450  0.000000      4.000000
  0.089175  0.089175  0.000000      1.000000
  0.000000  0.000000  0.030334      2.000000
  0.029725  0.000000  0.030334      8.000000
  0.059450  0.000000  0.030334      8.000000
  0.089175  0.000000  0.030334      4.000000
  0.029725  0.029725  0.030334      8.000000
  0.059450  0.029725  0.030334     16.000000
  0.089175  0.029725  0.030334      8.000000
[...]
 k-point    16 :   0.3333 0.1667 0.2500  plane waves:    6975
 k-point    17 :   0.5000 0.1667 0.2500  plane waves:    6980
 k-point    18 :   0.3333 0.3333 0.2500  plane waves:    6972
 k-point    19 :   0.5000 0.3333 0.2500  plane waves:    6962
 k-point    20 :   0.5000 0.5000 0.2500  plane waves:    6972
 k-point    21 :   0.0000 0.0000 0.5000  plane waves:    6958
 k-point    22 :   0.1667 0.0000 0.5000  plane waves:    6974
 k-point    23 :   0.3333 0.0000 0.5000  plane waves:    6978
 k-point    24 :   0.5000 0.0000 0.5000  plane waves:    7008
 k-point    25 :   0.1667 0.1667 0.5000  plane waves:    6982
 k-point    26 :   0.3333 0.1667 0.5000  plane waves:    6972
 k-point    27 :   0.5000 0.1667 0.5000  plane waves:    6988
 k-point    28 :   0.3333 0.3333 0.5000  plane waves:    6992
 k-point    29 :   0.5000 0.3333 0.5000  plane waves:    6964
 k-point    30 :   0.5000 0.5000 0.5000  plane waves:    6944

 maximum and minimum number of plane-waves per node :      7019     6892

 maximum number of plane-waves:      7019
 maximum index in each direction:
   IXMAX=   10   IYMAX=   10   IZMAX=   15
   IXMIN=  -10   IYMIN=  -10   IZMIN=  -15

 serial   3D FFT for wavefunctions
 parallel 3D FFT for charge:
    minimum data exchange during FFTs selected (reduces bandwidth)

 Broyden mixing: mesh for mixing (old mesh)
   NGX = 21   NGY = 21   NGZ = 31
  (NGX  = 64   NGY  = 64   NGZ  = 96)
  gives a total of  13671 points

 initial charge density was supplied:
 charge density of overlapping atoms calculated
 number of electron     121.0000000 magnetization
 keeping initial charge density in first step

 Maximum index for augmentation-charges          443 (set IRDMAX)

 First call to EWALD:  gamma=   0.278
 Maximum number of real-space cells   3x   3x   2
 Maximum number of reciprocal cells   2x   2x   3

--------------------------------------- Ionic step        1  -------------------------------------------

--------------------------------------- Iteration      1(   1)  ---------------------------------------

 eigenvalue-minimisations  :  7680
 total energy-change (2. order) : 0.8474994E+03  (-0.5804232E+04)
 number of electron     121.0000000 magnetization
 augmentation part      121.0000000 magnetization

 Free energy of the ion-electron system (eV)
  alpha Z        PSCENC =       315.16450473
  Ewald energy   TEWEN  =     -8824.03663466
  -Hartree energ DENC   =     -4336.18656843
  -exchange      EXHF   =         0.00000000
  -V(xc)+E(xc)   XCENC  =       269.62011889
  PAW double counting   =     10984.71331719   -10925.53584238
  entropy T*S    EENTRO =        -0.00288864
  eigenvalues    EBANDS =      -329.96642658
  atomic energy  EATOM  =     13693.72977468
  Solvation  Ediel_sol  =         0.00000000
  free energy    TOTEN  =       847.49935481 eV

  energy without entropy =      847.50224345  energy(sigma->0) =      847.50031769

[...]

 eigenvalue-minimisations  :  7808
 total energy-change (2. order) :-0.8818109E+03  (-0.8439253E+03)
 number of electron     121.0000000 magnetization
 augmentation part      121.0000000 magnetization

[...]

 Broyden mixing:
  rms(total) = 0.25821E+01    rms(broyden)= 0.25821E+01
  rms(prec ) = 0.35644E+01
  weight for this iteration     100.00

[...]

 eigenvalues of (default mixing * dielectric matrix)
  average eigenvalue GAMMA=   0.7431
  0.7431

[...]

 eigenvalue-minimisations  : 10944
 total energy-change (2. order) :-0.2408801E-02  (-0.3993505E-02)
 number of electron     120.9999743 magnetization
 augmentation part       34.1903612 magnetization

[...]

 Broyden mixing:
  rms(total) = 0.27885E-02    rms(broyden)= 0.27879E-02
  rms(prec ) = 0.49402E-02
  weight for this iteration     100.00

 eigenvalues of (default mixing * dielectric matrix)
  average eigenvalue GAMMA=   1.0704
  2.8619  2.6531  1.5814  1.1445  1.1051  0.8801  0.5766  0.3007  0.2472  0.2151
  0.2082

[...]

--------------------------------------- Iteration      1(  17)  ---------------------------------------

 eigenvalue-minimisations  : 12480
 total energy-change (2. order) : 0.9381163E-05  (-0.4796554E-05)
 number of electron     120.9999743 magnetization
 augmentation part       34.1724773 magnetization

 Free energy of the ion-electron system (eV)
  alpha Z        PSCENC =       315.16450473
  Ewald energy   TEWEN  =     -8824.03663466
  -Hartree energ DENC   =     -4134.52909474
  -exchange      EXHF   =         0.00000000
  -V(xc)+E(xc)   XCENC  =       262.32887375
  PAW double counting   =     13515.07002098   -13434.33798304
  entropy T*S    EENTRO =        -0.00274704
  eigenvalues    EBANDS =     -1487.20995380
  atomic energy  EATOM  =     13693.72977468
  Solvation  Ediel_sol  =         0.00000000
  free energy    TOTEN  =       -93.82323913 eV

  energy without entropy =      -93.82049209  energy(sigma->0) =      -93.82232345

 average (electrostatic) potential at core
  the test charge radii are     1.0314  1.0397  1.0406
  (the norm of the test charge is              1.0000)
       1 -62.0978       2 -72.2808       3 -72.4967       4 -72.4096       5 -72.4967
       6 -72.4096       7 -72.4456       8 -72.2191       9 -71.5240      10 -71.5240
      11 -71.5240      12 -71.5240      13 -71.5240      14 -71.5240      15 -71.5240
      16 -71.5240

 E-fermi :   8.2690     XC(G=0): -11.0423     alpha+bet :-16.0145

 val. band max:        8.2585459360   @ k =   0.3333   0.3333   0.5000
 cond. band min:       8.2711122223   @ k =   0.5000   0.3333   0.5000
 fundamental gap:      0.0125662863
 Fermi energy:         8.2690287693

 k-point     1 :       0.0000    0.0000    0.0000
  band No.  band energies     occupation
      1     -48.4730      2.00000
      2     -48.4482      2.00000
      3     -48.3854      2.00000
      4     -48.3697      2.00000
      5     -48.3621      2.00000
      6     -48.2260      2.00000
      7     -48.1693      2.00000
      8     -24.8746      2.00000
      9     -24.8746      2.00000
     10     -24.8236      2.00000
     11     -24.8079      2.00000
     12     -24.8079      2.00000
     13     -24.7974      2.00000
     14     -24.7871      2.00000
     15     -24.7801      2.00000
     16     -24.7801      2.00000
     17     -24.7657      2.00000
     18     -24.7330      2.00000
     19     -24.7330      2.00000
     20     -24.7186      2.00000
     21     -24.5885      2.00000
     22     -24.5616      2.00000
     23     -24.3788      2.00000
     24     -24.3788      2.00000
     25     -24.2916      2.00000
     26     -24.2916      2.00000
     27     -24.2301      2.00000
     28     -24.2301      2.00000
     29      -6.5567      2.00000
     30      -6.5531      2.00000
     31      -6.5531      2.00000
     32      -6.5499      2.00000
     33      -6.5068      2.00000
     34      -1.3671      2.00000
     35       0.4074      2.00000
     36       1.4238      2.00000
     37       3.4213      2.00000
     38       3.4213      2.00000
     39       3.4480      2.00000
     40       3.4480      2.00000
     41       3.4609      2.00000
     42       3.7541      2.00000
     43       4.8240      2.00000
     44       5.2296      2.00000
     45       5.2320      2.00000
     46       5.6842      2.00000
     47       6.0681      2.00000
     48       6.1338      2.00000
     49       6.1338      2.00000
     50       6.4232      2.00000
     51       6.4232      2.00000
     52       6.5790      2.00000
     53       6.7536      2.00000
     54       6.7536      2.00000
     55       7.1354      2.00000
     56       7.2815      2.00000
     57       7.4769      2.00000
     58       7.6916      2.00000
     59       7.6916      2.00000
     60       7.7684      2.00000
[...]
    114      18.7380      0.00000
    115      19.1510      0.00000
    116      19.2145      0.00000
    117      19.8397      0.00000
    118      19.8397      0.00000
    119      20.3843      0.00000
    120      20.3843      0.00000
    121      20.7337      0.00000
    122      20.7884      0.00000
    123      20.8335      0.00000
    124      20.8335      0.00000
    125      20.8507      0.00000
    126      21.3663      0.00000
    127      21.4129      0.00000
    128      21.4129      0.00000

[...]

 k-point    30 :       0.5000    0.5000    0.5000
  band No.  band energies     occupation
      1     -48.4489      2.00000
      2     -48.4489      2.00000
      3     -48.3934      2.00000
      4     -48.3629      2.00000
      5     -48.3629      2.00000
      6     -48.2371      2.00000
      7     -48.1809      2.00000
      8     -24.7982      2.00000
      9     -24.7982      2.00000
     10     -24.7977      2.00000
     11     -24.7786      2.00000
     12     -24.7684      2.00000
     13     -24.7684      2.00000
     14     -24.7412      2.00000
     15     -24.6339      2.00000
     16     -24.6339      2.00000
     17     -24.6271      2.00000
     18     -24.6119      2.00000
     19     -24.5960      2.00000
     20     -24.5950      2.00000
     21     -24.5905      2.00000
     22     -24.5798      2.00000
     23     -24.5753      2.00000
     24     -24.5732      2.00000
     25     -24.4878      2.00000
     26     -24.4878      2.00000
     27     -24.4190      2.00000
     28     -24.4190      2.00000
     29      -6.5517      2.00000
     30      -6.5517      2.00000
     31      -6.5511      2.00000
     32      -6.5323      2.00000
     33      -6.5043      2.00000
     34       0.1914      2.00000
     35       1.5837      2.00000
     36       1.6692      2.00000
     37       1.6692      2.00000
     38       1.8644      2.00000
     39       1.9126      2.00000
     40       1.9374      2.00000
     41       1.9374      2.00000
     42       4.6649      2.00000
     43       5.4714      2.00000
     44       5.4714      2.00000
     45       5.6164      2.00000
     46       6.0938      2.00000
     47       6.2725      2.00000
     48       6.2725      2.00000
     49       6.3317      2.00000
     50       7.5605      2.00000
     51       7.5605      2.00000
     52       7.8602      2.00000
     53       7.8658      2.00000
     54       7.9000      2.00000
     55       8.0493      2.00804
     56       8.0493      2.00804
     57       8.1083      2.04547
     58       8.1520      2.06995
     59       8.1520      2.06995
     60       8.2135      1.79810
[...]
    114      17.8947      0.00000
    115      18.1047      0.00000
    116      18.1047      0.00000
    117      18.6254      0.00000
    118      18.6254      0.00000
    119      18.6627      0.00000
    120      18.6631      0.00000
    121      18.6631      0.00000
    122      18.7029      0.00000
    123      18.7120      0.00000
    124      18.7328      0.00000
    125      20.4040      0.00000
    126      20.7219      0.00000
    127      20.7219      0.00000
    128      20.8333      0.00000

 soft charge-density along one line, spin component           1
         0         1         2         3         4         5         6         7         8         9
 total charge-density along one line

------------------------ aborting loop because EDIFF is reached ----------------------------------------

  FORCE on cell =-STRESS in cart. coord.  units (eV):
  Direction    XX          YY          ZZ          XY          YZ          ZX
  Alpha Z   315.16450   315.16450   315.16450
  Ewald   -2299.74450 -2299.74450 -4224.56271     0.00000    -0.00000    -0.00000
  Hartree  1935.29772  1935.29772   263.90713    -0.00000    -0.00000    -0.00000
  E(xc)    -591.74477  -591.74477  -593.00888    -0.00000     0.00000    -0.00000
  Local   -1261.52363 -1261.52363  2359.13450    -0.00000     0.00000    -0.00000
  n-local   -70.60311   -92.13417   -43.53734    -2.12509     0.83090     1.26449
  augment   553.13488   553.13488   537.72501    -0.00000     0.00000    -0.00000
  Kinetic  1417.13589  1444.33733  1385.16426     0.62191    -1.28427    -0.70642
  Fock        0.00000     0.00000     0.00000     0.00000     0.00000     0.00000
  Total      -0.04781    -0.04781    -0.01353     0.00000     0.00000     0.00000
  in kB      -0.29565    -0.29565    -0.08366     0.00000     0.00000     0.00000

 VOLUME and BASIS-vectors are now :
  energy-cutoff  :      520.00
  volume of cell :      259.10
      direct lattice vectors                 reciprocal lattice vectors
     5.606951968  0.000000000  0.000000000     0.178350021  0.000000000  0.000000000
     0.000000000  5.606951968  0.000000000     0.000000000  0.178350021  0.000000000
     0.000000000  0.000000000  8.241706534     0.000000000  0.000000000  0.121334095

  length of vectors
     5.606951968  5.606951968  8.241706534     0.178350021  0.178350021  0.121334095

 FORCES acting on ions
    electron-ion (+dipol)            ewald-force                    non-local-force                 convergence-correction
   0.483E-14 0.959E-14 -.991E-13   0.380E-13 0.613E-14 -.292E-13   0.000E+00 0.000E+00 0.000E+00   0.954E-13 -.878E-14 -.361E-12
   0.318E-15 0.730E-15 0.103E-11   -.332E-13 -.935E-14 0.512E-13   0.000E+00 0.000E+00 0.000E+00   0.443E-13 -.177E-13 0.315E-12
   0.129E-14 0.387E-12 -.560E-13   -.290E-13 -.624E-14 -.274E-13   0.000E+00 0.000E+00 0.000E+00   0.886E-13 0.137E-13 -.293E-12
   -.354E-14 0.392E-12 0.105E-11   -.452E-13 -.144E-13 0.195E-13   0.000E+00 0.000E+00 0.000E+00   0.650E-13 0.108E-13 0.288E-12
   0.380E-12 -.131E-15 -.688E-11   -.635E-14 0.635E-14 -.195E-13   0.000E+00 0.000E+00 0.000E+00   -.494E-13 -.227E-13 -.309E-12
   0.390E-12 -.359E-14 0.433E-11   0.292E-13 0.240E-14 0.274E-13   0.000E+00 0.000E+00 0.000E+00   -.195E-13 0.211E-14 0.312E-12
   0.381E-12 0.403E-12 -.209E-11   -.263E-13 -.182E-13 -.274E-13   0.000E+00 0.000E+00 0.000E+00   -.358E-13 0.341E-13 -.298E-12
   0.392E-12 0.418E-12 0.260E-11   0.957E-14 -.103E-13 0.433E-13   0.000E+00 0.000E+00 0.000E+00   -.782E-14 0.130E-13 0.305E-12
   -.624E+00 -.624E+00 0.469E+00   0.109E+01 0.109E+01 0.671E+00   -.468E+00 -.468E+00 -.113E+01   -.722E-03 -.722E-03 -.399E-02
   -.624E+00 -.624E+00 -.469E+00   0.109E+01 0.109E+01 -.671E+00   -.468E+00 -.468E+00 0.113E+01   -.722E-03 -.722E-03 0.399E-02
   -.624E+00 0.624E+00 0.469E+00   0.109E+01 -.109E+01 0.671E+00   -.468E+00 0.468E+00 -.113E+01   -.722E-03 0.722E-03 -.399E-02
   -.624E+00 0.624E+00 -.469E+00   0.109E+01 -.109E+01 -.671E+00   -.468E+00 0.468E+00 0.113E+01   -.722E-03 0.722E-03 0.399E-02
   0.624E+00 -.624E+00 0.469E+00   -.109E+01 0.109E+01 0.671E+00   0.468E+00 -.468E+00 -.113E+01   0.722E-03 -.722E-03 -.399E-02
   0.624E+00 -.624E+00 -.469E+00   -.109E+01 0.109E+01 -.671E+00   0.468E+00 -.468E+00 0.113E+01   0.722E-03 -.722E-03 0.399E-02
   0.624E+00 0.624E+00 0.469E+00   -.109E+01 -.109E+01 0.671E+00   0.468E+00 0.468E+00 -.113E+01   0.722E-03 0.722E-03 -.399E-02
   0.624E+00 0.624E+00 -.469E+00   -.109E+01 -.109E+01 -.671E+00   0.468E+00 0.468E+00 0.113E+01   0.722E-03 0.722E-03 0.399E-02
   0.144E-11 0.123E-11 0.437E-11   0.000E+00 -.777E-14 -.178E-14   -.333E-15 0.555E-16 0.000E+00   0.180E-12 0.248E-13 -.409E-13

 POSITION                                       TOTAL-FORCE (eV/Angst)
      0.00000      0.00000      0.00000        -0.000000      0.000000      0.000000
      0.00000      0.00000      4.12085        -0.000000      0.000000      0.000000
      0.00000      2.80348      0.00000        -0.000000      0.000000      0.000000
      0.00000      2.80348      4.12085        -0.000000      0.000000      0.000000
      2.80348      0.00000      0.00000        -0.000000      0.000000      0.000000
      2.80348      0.00000      4.12085        -0.000000      0.000000      0.000000
      2.80348      2.80348      0.00000        -0.000000      0.000000      0.000000
      2.80348      2.80348      4.12085        -0.000000      0.000000      0.000000
      1.40705      1.40705      2.07750         0.001570      0.001570      0.007608
      1.40705      1.40705      6.16421         0.001570      0.001570     -0.007608
      1.40705      4.19990      2.07750         0.001570     -0.001570      0.007608
      1.40705      4.19990      6.16421         0.001570     -0.001570     -0.007608
      4.19990      1.40705      2.07750        -0.001570      0.001570      0.007608
      4.19990      1.40705      6.16421        -0.001570      0.001570     -0.007608
      4.19990      4.19990      2.07750        -0.001570     -0.001570      0.007608
      4.19990      4.19990      6.16421        -0.001570     -0.001570     -0.007608
    total drift:                                0.000000      0.000000      0.000000

  FREE ENERGIE OF THE ION-ELECTRON SYSTEM (eV)
  free  energy   TOTEN  =       -93.82323913 eV

  energy  without entropy=      -93.82049209  energy(sigma->0) =      -93.82232345

 writing wavefunctions