 vasp.6.5.0 16Dec24 (build Apr 17 2025 17:55:45) complex

 executed on             LinuxIFC date 2025.06.03  18:30:27

 INCAR:
   SYSTEM = CaNi2
   ISTART = 0
   ICHARG = 2
   PREC = N
   LREAL = .FALSE.
   ENCUT = 520
   ALGO = N
   NELM = 500
   EDIFF = 1E-05
   IBRION = 1
   ISIF = 3
   NSW = 300
   EDIFFG = -0.01
   ISMEAR = 0
   SIGMA = 0.1

 POTCAR:    PAW_PBE Ti_sv 26Sep2005
 POTCAR:    PAW_PBE Ga_d 06Jul2010
 POTCAR:    PAW_PBE Al 04Jan2001
|           W    W    AA    RRRRR   N    N  II  N    N   GGGG   !!!           |
|           W    W   A  A   R    R  NN   N  II  NN   N  G    G  !!!           |
|           W    W  A    A  R    R  N N  N  II  N N  N  G       !!!           |
|           W WW W  AAAAAA  RRRRR   N  N N  II  N  N N  G  GGG   !            |
|           WW  WW  A    A  R   R   N   NN  II  N   NN  G    G                |
|           W    W  A    A  R    R  N    N  II  N    N   GGGG   !!!           |
|     For optimal performance we recommend to set                             |
|       NCORE = 2 up to number-of-cores-per-socket                            |
|     This setting can greatly improve the performance of VASP for DFT.       |
|     The default, NCORE=1 might be grossly inefficient on modern             |
|     multi-core architectures or massively parallel machines. Do your        |
|     Unfortunately you need to use the default for GW and RPA                |
|     calculations (for HF NCORE is supported but not extensively tested      |
|     yet).                                                                   |

   TITEL  = PAW_PBE Ti_sv 26Sep2005
   POMASS =   47.880; ZVAL   =   12.000    mass and valenz
   ENMAX  =  274.610; ENMIN  =  205.957 eV

   TITEL  = PAW_PBE Ga_d 06Jul2010
   POMASS =   69.723; ZVAL   =   13.000    mass and valenz
   ENMAX  =  282.691; ENMIN  =  212.018 eV

   TITEL  = PAW_PBE Al 04Jan2001
   POMASS =   26.981; ZVAL   =    3.000    mass and valenz
   ENMAX  =  240.300; ENMIN  =  180.225 eV

  PAW_PBE Ti_sv 26Sep2005               :
  PAW_PBE Ga_d 06Jul2010                :
  PAW_PBE Al 04Jan2001                  :

 POSCAR: Ti1 Al1
  positions in direct lattice

 exchange-correlation table for PE
   RHO(1)=    0.500       N(1)  =     2000
   RHO(2)=  100.500       N(2)  =     4000

 ion  position               nearest neighbor table
   1  0.000  0.000  0.000-   3 2.82   5 2.82   3 2.82   5 2.82  11 2.85  12 2.85  13 2.85  14 2.85
                            15 2.85  16 2.85   9 2.85  10 2.85
   2  0.000  0.000  0.500-   4 2.82   6 2.82   4 2.82   6 2.82  11 2.85  12 2.85  13 2.85  14 2.85
                            15 2.85  16 2.85   9 2.85  10 2.85
   3  0.000  0.500  0.000-   1 2.82   7 2.82   1 2.82   7 2.82  11 2.85  12 2.85  13 2.85  14 2.85
                            15 2.85  16 2.85   9 2.85  10 2.85
   4  0.000  0.500  0.500-   2 2.82   8 2.82   2 2.82   8 2.82  11 2.85  12 2.85  13 2.85  14 2.85
                            15 2.85  16 2.85   9 2.85  10 2.85
   5  0.500  0.000  0.000-   1 2.82   7 2.82   7 2.82   1 2.82  11 2.85  12 2.85  13 2.85  14 2.85
                            15 2.85  16 2.85   9 2.85  10 2.85
   6  0.500  0.000  0.500-   2 2.82   8 2.82   8 2.82   2 2.82  11 2.85  12 2.85  13 2.85  14 2.85
                            15 2.85  16 2.85   9 2.85  10 2.85
   7  0.500  0.500  0.000-   3 2.82   5 2.82   5 2.82   3 2.82  11 2.85  12 2.85  13 2.85  14 2.85
                            15 2.85  16 2.85   9 2.85  10 2.85
   8  0.500  0.500  0.500-   4 2.82   6 2.82   6 2.82   4 2.82  11 2.85  12 2.85  13 2.85  14 2.85
                            15 2.85  16 2.85   9 2.85  10 2.85
   9  0.250  0.250  0.250-  11 2.82  13 2.82  11 2.82  13 2.82   5 2.85   6 2.85   7 2.85   8 2.85
                             1 2.85   2 2.85   3 2.85   4 2.85
  10  0.250  0.250  0.750-  12 2.82  14 2.82  12 2.82  14 2.82   5 2.85   6 2.85   7 2.85   8 2.85
                             1 2.85   2 2.85   3 2.85   4 2.85
  11  0.250  0.750  0.250-   9 2.82  15 2.82   9 2.82  15 2.82   5 2.85   6 2.85   7 2.85   8 2.85
                             1 2.85   2 2.85   3 2.85   4 2.85
  12  0.250  0.750  0.750-  10 2.82  16 2.82  10 2.82  16 2.82   5 2.85   6 2.85   7 2.85   8 2.85
                             1 2.85   2 2.85   3 2.85   4 2.85
  13  0.750  0.250  0.250-   9 2.82  15 2.82  15 2.82   9 2.82   5 2.85   6 2.85   7 2.85   8 2.85
                             1 2.85   2 2.85   3 2.85   4 2.85
  14  0.750  0.250  0.750-  10 2.82  16 2.82  16 2.82  10 2.82   5 2.85   6 2.85   7 2.85   8 2.85
                             1 2.85   2 2.85   3 2.85   4 2.85
  15  0.750  0.750  0.250-  11 2.82  13 2.82  13 2.82  11 2.82   5 2.85   6 2.85   7 2.85   8 2.85
                             1 2.85   2 2.85   3 2.85   4 2.85
  16  0.750  0.750  0.750-  12 2.82  14 2.82  14 2.82  12 2.82   5 2.85   6 2.85   7 2.85   8 2.85
                             1 2.85   2 2.85   3 2.85   4 2.85

  LATTYP: Found a simple tetragonal cell.
 ALAT       =     5.6476373672
 C/A-ratio  =     1.4414285973

  Lattice vectors:

 A1 = (   5.6476373672,   0.0000000000,   0.0000000000)
 A2 = (   0.0000000000,   5.6476373672,   0.0000000000)
 A3 = (   0.0000000000,   0.0000000000,   8.1406660080)

Analysis of symmetry for initial positions (statically):
 Subroutine PRICEL returns:
 Original cell was already a primitive cell.

 Routine SETGRP: Setting up the symmetry group for a
 simple tetragonal supercell.

 Subroutine GETGRP returns: Found 16 space group operations
 (whereof  2 operations were pure point group operations)
 out of a pool of 16 trial point group operations.

The static configuration has the point symmetry C_1h.
 The point group associated with its full space group is D_4h.

Analysis of symmetry for dynamics (positions and initial velocities):
 Subroutine PRICEL returns:
 Original cell was already a primitive cell.

 Routine SETGRP: Setting up the symmetry group for a
 simple tetragonal supercell.

 Subroutine GETGRP returns: Found 16 space group operations
 (whereof  2 operations were pure point group operations)
 out of a pool of 16 trial point group operations.

The dynamic configuration has the point symmetry C_1h.
 The point group associated with its full space group is D_4h.

 Subroutine INISYM returns: Found 16 space group operations
 (whereof  2 operations are pure point group operations),
 and found     1 'primitive' translations

                                     Primitive cell

  volume of cell :     259.6531

  direct lattice vectors                    reciprocal lattice vectors
     5.647637367  0.000000000  0.000000000     0.177065193  0.000000000  0.000000000
     0.000000000  5.647637367  0.000000000     0.000000000  0.177065193  0.000000000
     0.000000000  0.000000000  8.140666008     0.000000000  0.000000000  0.122840072

  length of vectors
     5.647637367  5.647637367  8.140666008     0.177065193  0.177065193  0.122840072

  position of ions in fractional coordinates (direct lattice)
     0.000000000  0.000000000  0.000000000
     0.000000000  0.000000000  0.500000000
     0.000000000  0.500000000  0.000000000
     0.000000000  0.500000000  0.500000000
     0.500000000  0.000000000  0.000000000
     0.500000000  0.000000000  0.500000000
     0.500000000  0.500000000  0.000000000
     0.500000000  0.500000000  0.500000000
     0.250000000  0.250000000  0.250000000
     0.250000000  0.250000000  0.750000000
     0.250000000  0.750000000  0.250000000
     0.250000000  0.750000000  0.750000000
     0.750000000  0.250000000  0.250000000
     0.750000000  0.250000000  0.750000000
     0.750000000  0.750000000  0.250000000
     0.750000000  0.750000000  0.750000000

  ion indices of the primitive-cell ions
   primitive index   ion index
                 1           1
                 2           2
                 3           3
                 4           4
                 5           5
                 6           6
                 7           7
                 8           8
                 9           9
                10          10
                11          11
                12          12
                13          13
                14          14
                15          15
                16          16

 KPOINTS: K-Spacing Value to Generate K-Mesh: 0.03

Automatic generation of k-mesh.
 Grid dimensions read from file:
 generate k-points for:    6    6    4

 Generating k-lattice:

  Cartesian coordinates                     Fractional coordinates (reciprocal lattice)
     0.029510865  0.000000000  0.000000000     0.166666667  0.000000000  0.000000000
     0.000000000  0.029510865  0.000000000     0.000000000  0.166666667  0.000000000
     0.000000000  0.000000000  0.030710018     0.000000000  0.000000000  0.250000000

  Length of vectors
     0.029510865  0.029510865  0.030710018

  Shift w.r.t. Gamma in fractional coordinates (k-lattice)
     0.000000000  0.000000000  0.000000000

 Subroutine IBZKPT returns following result:

 Found     30 irreducible k-points:

 Following reciprocal coordinates:
            Coordinates               Weight
  0.000000  0.000000  0.000000      1.000000
  0.166667  0.000000  0.000000      4.000000
  0.333333  0.000000  0.000000      4.000000
  0.500000  0.000000  0.000000      2.000000
  0.166667  0.166667  0.000000      4.000000
  0.333333  0.166667  0.000000      8.000000
  0.500000  0.166667  0.000000      4.000000
  0.333333  0.333333  0.000000      4.000000
  0.500000  0.333333  0.000000      4.000000
  0.500000  0.500000  0.000000      1.000000
  0.000000  0.000000  0.250000      2.000000
  0.166667  0.000000  0.250000      8.000000
  0.333333  0.000000  0.250000      8.000000
  0.500000  0.000000  0.250000      4.000000
  0.166667  0.166667  0.250000      8.000000
  0.333333  0.166667  0.250000     16.000000
  0.500000  0.166667  0.250000      8.000000
  0.333333  0.333333  0.250000      8.000000
  0.500000  0.333333  0.250000      8.000000
  0.500000  0.500000  0.250000      2.000000
  0.000000  0.000000  0.500000      1.000000
  0.166667  0.000000  0.500000      4.000000
  0.333333  0.000000  0.500000      4.000000
  0.500000  0.000000  0.500000      2.000000
  0.166667  0.166667  0.500000      4.000000
  0.333333  0.166667  0.500000      8.000000
  0.500000  0.166667  0.500000      4.000000
  0.333333  0.333333  0.500000      4.000000
  0.500000  0.333333  0.500000      4.000000
  0.500000  0.500000  0.500000      1.000000

 Following cartesian coordinates:
            Coordinates               Weight
  0.000000  0.000000  0.000000      1.000000
  0.029511  0.000000  0.000000      4.000000
  0.059022  0.000000  0.000000      4.000000
  0.088533  0.000000  0.000000      2.000000
  0.029511  0.029511  0.000000      4.000000
  0.059022  0.029511  0.000000      8.000000
  0.088533  0.029511  0.000000      4.000000
  0.059022  0.059022  0.000000      4.000000
  0.088533  0.059022  0.000000      4.000000
  0.088533  0.088533  0.000000      1.000000
  0.000000  0.000000  0.030710      2.000000
  0.029511  0.000000  0.030710      8.000000
  0.059022  0.000000  0.030710      8.000000
  0.088533  0.000000  0.030710      4.000000
[...]
  in kB      -4.14542    -4.14542    -7.17472    -0.00000     0.00000     0.00000

 VOLUME and BASIS-vectors are now :
  energy-cutoff  :      520.00
  volume of cell :      259.65
      direct lattice vectors                 reciprocal lattice vectors
     5.647637367  0.000000000  0.000000000     0.177065193  0.000000000  0.000000000
     0.000000000  5.647637367  0.000000000     0.000000000  0.177065193  0.000000000
     0.000000000  0.000000000  8.140666008     0.000000000  0.000000000  0.122840072

[...]

 FORCES acting on ions
    electron-ion (+dipol)            ewald-force                    non-local-force                 convergence-correction
   0.671E+02 0.671E+02 0.158E+03   -.672E+02 -.672E+02 -.158E+03   0.176E+00 0.176E+00 0.201E+00   0.742E-03 0.742E-03 0.127E-03
   0.671E+02 0.671E+02 -.158E+03   -.672E+02 -.672E+02 0.158E+03   0.176E+00 0.176E+00 -.201E+00   0.742E-03 0.742E-03 -.127E-03
   0.671E+02 -.671E+02 0.158E+03   -.672E+02 0.672E+02 -.158E+03   0.176E+00 -.176E+00 0.201E+00   0.742E-03 -.742E-03 0.127E-03
   0.671E+02 -.671E+02 -.158E+03   -.672E+02 0.672E+02 0.158E+03   0.176E+00 -.176E+00 -.201E+00   0.742E-03 -.742E-03 -.127E-03
   -.671E+02 0.671E+02 0.158E+03   0.672E+02 -.672E+02 -.158E+03   -.176E+00 0.176E+00 0.201E+00   -.742E-03 0.742E-03 0.127E-03
   -.671E+02 0.671E+02 -.158E+03   0.672E+02 -.672E+02 0.158E+03   -.176E+00 0.176E+00 -.201E+00   -.742E-03 0.742E-03 -.127E-03
   -.671E+02 -.671E+02 0.158E+03   0.672E+02 0.672E+02 -.158E+03   -.176E+00 -.176E+00 0.201E+00   -.742E-03 -.742E-03 0.127E-03
   -.671E+02 -.671E+02 -.158E+03   0.672E+02 0.672E+02 0.158E+03   -.176E+00 -.176E+00 -.201E+00   -.742E-03 -.742E-03 -.127E-03
   0.399E-12 0.128E-11 -.149E-11   0.328E-13 0.168E-13 0.591E-13   0.662E-23 0.000E+00 0.000E+00   0.168E-12 0.121E-12 0.160E-12
   -.207E-13 -.599E-12 0.455E-13   -.109E-13 -.874E-14 0.143E-14   -.529E-22 0.132E-22 0.000E+00   0.976E-14 0.441E-14 -.406E-13
   -.242E-13 -.108E-12 -.534E-12   -.147E-13 -.638E-14 -.101E-14   0.397E-22 0.207E-24 -.455E-23   0.116E-13 -.923E-14 0.364E-13
   -.235E-13 0.824E-12 0.264E-12   0.977E-15 -.313E-14 0.203E-14   -.281E-22 0.000E+00 -.331E-23   0.107E-13 -.468E-14 -.392E-13
   -.549E-13 0.575E-12 0.237E-12   -.216E-13 -.834E-14 -.105E-14   0.207E-24 0.132E-22 0.000E+00   -.156E-13 0.606E-14 0.434E-13
   -.198E-13 -.170E-12 0.612E-12   -.125E-13 -.822E-14 0.199E-14   0.000E+00 0.000E+00 0.662E-23   -.110E-13 0.332E-14 -.446E-13
   -.298E-13 0.406E-12 -.151E-12   -.117E-13 -.675E-14 -.115E-14   -.265E-22 0.132E-22 0.000E+00   -.125E-13 -.638E-14 0.398E-13
   -.201E-13 0.432E-12 0.242E-12   -.124E-13 -.728E-14 0.184E-14   -.265E-22 0.794E-22 0.000E+00   -.119E-13 -.366E-14 -.409E-13
   0.103E-10 0.103E-10 0.534E-11   -.739E-14 -.462E-13 -.221E-13   0.278E-16 0.119E-21 -.124E-23   0.404E-13 0.143E-12 0.103E-12

 POSITION                                       TOTAL-FORCE (eV/Angst)
      0.00000      0.00000      0.00000         0.011690      0.011690      0.028920
      0.00000      0.00000      4.07033         0.011690      0.011690     -0.028920
      0.00000      2.82382      0.00000         0.011690     -0.011690      0.028920
      0.00000      2.82382      4.07033         0.011690     -0.011690     -0.028920
      2.82382      0.00000      0.00000        -0.011690      0.011690      0.028920
      2.82382      0.00000      4.07033        -0.011690      0.011690     -0.028920
      2.82382      2.82382      0.00000        -0.011690     -0.011690      0.028920
      2.82382      2.82382      4.07033        -0.011690     -0.011690     -0.028920
      1.41191      1.41191      2.03517        -0.000000     -0.000000     -0.000000
      1.41191      1.41191      6.10550         0.000000      0.000000     -0.000000
      1.41191      4.23573      2.03517         0.000000      0.000000     -0.000000
      1.41191      4.23573      6.10550         0.000000      0.000000     -0.000000
      4.23573      1.41191      2.03517         0.000000     -0.000000     -0.000000
      4.23573      1.41191      6.10550         0.000000      0.000000     -0.000000
      4.23573      4.23573      2.03517         0.000000      0.000000     -0.000000
      4.23573      4.23573      6.10550         0.000000      0.000000     -0.000000
    total drift:                                0.000000      0.000000      0.000000

  FREE ENERGIE OF THE ION-ELECTRON SYSTEM (eV)
  free  energy   TOTEN  =       -98.45998654 eV

  energy  without entropy=      -98.39657622  energy(sigma->0) =      -98.42828138

 Quasi-Newton relaxation of ions (Broydens 2nd method)
  g(Force)  = 0.428E-03   g(Stress)= 0.680E-02

 Reset! Starting new Quasi-Newton update for ions

[...]

  energy  without entropy=      -98.39877941  energy(sigma->0) =      -98.43018433
 d Force = 0.3655924E-03[ 0.304E-03, 0.427E-03]  d Energy = 0.1602708E-02-0.124E-02
 d Force =-0.2377541E+01[-0.239E+01,-0.236E+01]  d Ewald  = 0.2390433E+02-0.263E+02

[...]

 retain information from N=  1 steps
 eigenvalues of (default step * inverse Hessian matrix)
  average eigenvalue of G=   0.6466
 eigenvalue spectrum of G is  0.6466

[...]

  energy  without entropy=      -98.39979193  energy(sigma->0) =      -98.43125485
 d Force = 0.1347168E-03[ 0.123E-03, 0.147E-03]  d Energy = 0.1128525E-02-0.994E-03
 d Force =-0.1106628E+01[-0.111E+01,-0.111E+01]  d Ewald  =-0.1167029E+02 0.106E+02

[...]

--------------------------------------- Ionic step        5  -------------------------------------------

[...]

 eigenvalue-minimisations  :  8140
 total energy-change (2. order) : 0.1319780E-04  (-0.8611515E-05)
 number of electron     129.9999750 magnetization
 augmentation part       37.9029076 magnetization

 Broyden mixing:
  rms(total) = 0.16626E-02    rms(broyden)= 0.16625E-02
  rms(prec ) = 0.19507E-02
  weight for this iteration     100.00

 eigenvalues of (default mixing * dielectric matrix)
  average eigenvalue GAMMA=   1.4473
  2.0258  1.0406  1.2756

[...]

--------------------------------------- Iteration      5(   5)  ---------------------------------------

 eigenvalue-minimisations  :  5984
 total energy-change (2. order) :-0.4646465E-05  (-0.2047275E-05)
 number of electron     129.9999750 magnetization
 augmentation part       37.9029076 magnetization

 Free energy of the ion-electron system (eV)
  alpha Z        PSCENC =       381.68433306
  Ewald energy   TEWEN  =     -9869.40651717
  -Hartree energ DENC   =     -4556.26996980
  -exchange      EXHF   =         0.00000000
  -V(xc)+E(xc)   XCENC  =       349.48744098
  PAW double counting   =     14884.53947807   -14812.41039060
  entropy T*S    EENTRO =        -0.06272043
  eigenvalues    EBANDS =     -1704.30092391
  atomic energy  EATOM  =     15228.27630495
  Solvation  Ediel_sol  =         0.00000000
  free energy    TOTEN  =       -98.46296485 eV

  energy without entropy =      -98.40024442  energy(sigma->0) =      -98.43160463

 average (electrostatic) potential at core
  the test charge radii are     1.0397  1.0314  1.0406
  (the norm of the test charge is              1.0000)
       1 -72.3263       2 -72.3263       3 -72.3263       4 -72.3263       5 -72.3263
       6 -72.3263       7 -72.3263       8 -72.3263       9 -61.6125      10 -71.3197
      11 -71.4140      12 -71.3226      13 -71.4140      14 -71.3226      15 -71.3091
      16 -71.3353

 E-fermi :   8.3062     XC(G=0): -11.1518     alpha+bet :-16.1915

 val. band max:        8.2894338629   @ k =   0.5000   0.5000   0.5000
 cond. band min:       8.3148050210   @ k =   0.5000   0.3333   0.2500
 fundamental gap:      0.0253711581
 Fermi energy:         8.3061791838

[...]

 k-point    30 :       0.5000    0.5000    0.5000
  band No.  band energies     occupation
      1     -48.2799      2.00000
      2     -48.2799      2.00000
      3     -48.2793      2.00000
      4     -48.2793      2.00000
      5     -48.2793      2.00000
      6     -48.2793      2.00000
      7     -48.2788      2.00000
      8     -48.2787      2.00000
      9     -24.6853      2.00000
     10     -24.6846      2.00000
     11     -24.6846      2.00000
     12     -24.6846      2.00000
     13     -24.6842      2.00000
     14     -24.6842      2.00000
     15     -24.6841      2.00000
     16     -24.6838      2.00000
     17     -24.5166      2.00000
     18     -24.5165      2.00000
     19     -24.5125      2.00000
     20     -24.5123      2.00000
     21     -24.5046      2.00000
     22     -24.5046      2.00000
     23     -24.5046      2.00000
     24     -24.5046      2.00000
     25     -24.4996      2.00000
     26     -24.4996      2.00000
     27     -24.4996      2.00000
     28     -24.4996      2.00000
     29     -24.4919      2.00000
     30     -24.4918      2.00000
     31     -24.4877      2.00000
     32     -24.4876      2.00000
     33      -6.1235      2.00000
     34      -6.1146      2.00000
     35      -6.0915      2.00000
     36      -6.0915      2.00000
     37      -6.0564      2.00000
     38       1.0620      2.00000
     39       1.9341      2.00000
     40       1.9341      2.00000
     41       1.9851      2.00000
     42       1.9905      2.00000
     43       1.9912      2.00000
     44       1.9935      2.00000
     45       1.9935      2.00000
     46       6.1245      2.00000
     47       6.2222      2.00000
     48       6.2222      2.00000
     49       6.2265      2.00000
     50       6.2272      2.00000
     51       6.2339      2.00000
     52       6.2429      2.00000
     53       6.2429      2.00000
     54       7.8255      2.00000
     55       7.8255      2.00000
     56       7.8734      2.00000
     57       7.9026      2.00000
     58       7.9070      2.00000
     59       7.9070      2.00000
     60       7.9097      2.00000
[...]
     74       9.0331      0.00000
     75       9.0354      0.00000
     76       9.1144      0.00000
     77       9.1144      0.00000
     78       9.9533      0.00000
     79       9.9559      0.00000
     80       9.9559      0.00000
     81       9.9560      0.00000
     82       9.9756      0.00000
     83       9.9821      0.00000
     84       9.9827      0.00000
     85       9.9827      0.00000
     86      11.6305      0.00000
     87      11.6627      0.00000
     88      11.6793      0.00000

 soft charge-density along one line, spin component           1
         0         1         2         3         4         5         6         7         8         9
 total charge-density along one line

------------------------ aborting loop because EDIFF is reached ----------------------------------------

  FORCE on cell =-STRESS in cart. coord.  units (eV):
  Direction    XX          YY          ZZ          XY          YZ          ZX
  Alpha Z   381.68433   381.68433   381.68433
  Ewald   -2823.08816 -2823.08816 -4223.25302     0.00000     0.00000     0.00000
  Hartree  1931.37827  1931.37827   693.72596    -0.00000    -0.00000    -0.00000
  E(xc)    -646.54817  -646.54817  -648.18146    -0.00000    -0.00000     0.00000
  Local    -922.52783  -922.52783  1753.01544     0.00000    -0.00000    -0.00000
  n-local  -121.62351  -157.54531   -83.33648    -3.46553     0.74228     1.62073
  augment   618.27825   618.27825   595.73471     0.00000     0.00000     0.00000
  Kinetic  1581.51686  1619.29957  1530.65300     1.78379    -2.22432    -2.01354
  Fock        0.00000     0.00000     0.00000     0.00000     0.00000     0.00000
  Total       0.00049     0.00049     0.04250     0.00000    -0.00000     0.00000
  in kB       0.00301     0.00301     0.26346     0.00000    -0.00000     0.00000

 VOLUME and BASIS-vectors are now :
  energy-cutoff  :      520.00
  volume of cell :      258.46
      direct lattice vectors                 reciprocal lattice vectors
     5.645286061 -0.000000000  0.000000000     0.177138942 -0.000000000 -0.000000000
     0.000000000  5.645286061  0.000000000     0.000000000  0.177138942 -0.000000000
     0.000000000  0.000000000  8.109982462    -0.000000000 -0.000000000  0.123304829

  length of vectors
     5.645286061  5.645286061  8.109982462     0.177138942  0.177138942  0.123304829

 FORCES acting on ions
    electron-ion (+dipol)            ewald-force                    non-local-force                 convergence-correction
   0.692E+02 0.692E+02 0.163E+03   -.694E+02 -.694E+02 -.163E+03   0.173E+00 0.173E+00 0.199E+00   0.601E-03 0.601E-03 0.385E-02
   0.692E+02 0.692E+02 -.163E+03   -.694E+02 -.694E+02 0.163E+03   0.173E+00 0.173E+00 -.199E+00   0.601E-03 0.601E-03 -.385E-02
   0.692E+02 -.692E+02 0.163E+03   -.694E+02 0.694E+02 -.163E+03   0.173E+00 -.173E+00 0.199E+00   0.601E-03 -.601E-03 0.385E-02
   0.692E+02 -.692E+02 -.163E+03   -.694E+02 0.694E+02 0.163E+03   0.173E+00 -.173E+00 -.199E+00   0.601E-03 -.601E-03 -.385E-02
   -.692E+02 0.692E+02 0.163E+03   0.694E+02 -.694E+02 -.163E+03   -.173E+00 0.173E+00 0.199E+00   -.601E-03 0.601E-03 0.385E-02
   -.692E+02 0.692E+02 -.163E+03   0.694E+02 -.694E+02 0.163E+03   -.173E+00 0.173E+00 -.199E+00   -.601E-03 0.601E-03 -.385E-02
   -.692E+02 -.692E+02 0.163E+03   0.694E+02 0.694E+02 -.163E+03   -.173E+00 -.173E+00 0.199E+00   -.601E-03 -.601E-03 0.385E-02
   -.692E+02 -.692E+02 -.163E+03   0.694E+02 0.694E+02 0.163E+03   -.173E+00 -.173E+00 -.199E+00   -.601E-03 -.601E-03 -.385E-02
   0.434E-12 0.128E-11 -.144E-11   0.142E-12 -.164E-13 0.257E-13   0.790E-27 0.000E+00 0.000E+00   0.543E-12 0.302E-13 0.260E-12
   -.116E-13 -.601E-12 0.386E-13   0.630E-13 0.118E-13 0.109E-13   -.779E-26 0.000E+00 0.000E+00   -.437E-13 0.526E-14 -.419E-13
   -.112E-13 -.108E-12 -.533E-12   -.318E-13 -.313E-13 0.690E-14   0.132E-22 0.000E+00 -.132E-22   0.541E-13 0.163E-14 -.353E-13
   -.863E-14 0.829E-12 0.262E-12   0.115E-13 0.125E-14 -.216E-13   -.331E-23 0.331E-23 -.165E-23   -.471E-13 -.487E-14 0.376E-13
   -.637E-13 0.570E-12 0.231E-12   -.208E-13 -.439E-14 -.125E-13   0.184E-25 -.397E-22 -.662E-23   -.570E-13 -.358E-14 0.474E-13
   -.270E-13 -.174E-12 0.617E-12   -.202E-15 0.233E-13 -.172E-13   -.153E-25 0.000E+00 0.165E-23   0.451E-13 0.613E-14 -.478E-13
   -.358E-13 0.404E-12 -.155E-12   0.232E-13 0.159E-13 -.111E-14   0.909E-26 0.000E+00 0.000E+00   -.522E-13 0.378E-14 -.342E-13
   -.292E-13 0.438E-12 0.242E-12   0.357E-13 0.411E-14 0.336E-13   0.160E-27 -.827E-24 0.000E+00   0.485E-13 -.596E-14 0.335E-13
   0.912E-11 0.243E-10 0.249E-10   -.161E-12 0.184E-13 -.607E-13   0.555E-16 -.278E-16 -.278E-16   0.193E-12 -.410E-12 -.478E-12

 POSITION                                       TOTAL-FORCE (eV/Angst)
      0.00111      0.00111      0.00501        -0.000563     -0.000563      0.006058
      0.00111      0.00111      4.04999        -0.000563     -0.000563     -0.006058
      0.00111      2.82153      0.00501        -0.000563      0.000563      0.006058
      0.00111      2.82153      4.04999        -0.000563      0.000563     -0.006058
      2.82153      0.00111      0.00501         0.000563     -0.000563      0.006058
      2.82153      0.00111      4.04999         0.000563     -0.000563     -0.006058
      2.82153      2.82153      0.00501         0.000563      0.000563      0.006058
      2.82153      2.82153      4.04999         0.000563      0.000563     -0.006058
      1.41132      1.41132      2.02750         0.000000      0.000000     -0.000000
      1.41132      1.41132      6.08249         0.000000      0.000000     -0.000000
      1.41132      4.23396      2.02750         0.000000      0.000000     -0.000000
      1.41132      4.23396      6.08249         0.000000      0.000000     -0.000000
      4.23396      1.41132      2.02750         0.000000      0.000000     -0.000000
      4.23396      1.41132      6.08249         0.000000      0.000000     -0.000000
      4.23396      4.23396      2.02750         0.000000      0.000000     -0.000000
      4.23396      4.23396      6.08249         0.000000      0.000000     -0.000000
    total drift:                                0.000000      0.000000      0.000000

  FREE ENERGIE OF THE ION-ELECTRON SYSTEM (eV)
  free  energy   TOTEN  =       -98.46296485 eV

  energy  without entropy=      -98.40024442  energy(sigma->0) =      -98.43160463
 d Force = 0.1743219E-03[ 0.938E-04, 0.255E-03]  d Energy = 0.6236804E-04 0.112E-03
 d Force =-0.2794127E+01[-0.281E+01,-0.278E+01]  d Ewald  =-0.4576716E+00-0.234E+01

 Quasi-Newton relaxation of ions (Broydens 2nd method)
  g(Force)  = 0.144E-04   g(Stress)= 0.545E-05

 retain information from N=  2 steps
 eigenvalues of (default step * inverse Hessian matrix)
  average eigenvalue of G=   1.6429
 eigenvalue spectrum of G is  1.6429  1.6429

 reached required accuracy - stopping structural energy minimisation
 writing wavefunctions