 vasp.6.5.0 16Dec24 (build Apr 17 2025 17:55:45) complex

 executed on             LinuxIFC date 2025.06.10  15:01:50

 INCAR:
   ISTART = 0
   ICHARG = 2
   PREC = N
   LREAL = .FALSE.
   ENCUT = 520
   ALGO = N
   NELM = 500
   EDIFF = 1E-05
   IBRION = -1
   ISIF = 3
   NSW = 0
   EDIFFG = -0.01
   ISMEAR = 1
   SIGMA = 0.1
   LVHAR = .TRUE.
   LVTOT = .TRUE.

 POTCAR:    PAW_PBE Ga_d 06Jul2010
 POTCAR:    PAW_PBE Ti_sv 26Sep2005
 POTCAR:    PAW_PBE Al 04Jan2001
|           W    W    AA    RRRRR   N    N  II  N    N   GGGG   !!!           |
|           W    W   A  A   R    R  NN   N  II  NN   N  G    G  !!!           |
|           W    W  A    A  R    R  N N  N  II  N N  N  G       !!!           |
|           W WW W  AAAAAA  RRRRR   N  N N  II  N  N N  G  GGG   !            |
|           WW  WW  A    A  R   R   N   NN  II  N   NN  G    G                |
|           W    W  A    A  R    R  N    N  II  N    N   GGGG   !!!           |
|     For optimal performance we recommend to set                             |
|       NCORE = 2 up to number-of-cores-per-socket                            |
|     This setting can greatly improve the performance of VASP for DFT.       |
|     The default, NCORE=1 might be grossly inefficient on modern             |
|     multi-core architectures or massively parallel machines. Do your        |
|     Unfortunately you need to use the default for GW and RPA                |
|     calculations (for HF NCORE is supported but not extensively tested      |
|     yet).                                                                   |

   TITEL  = PAW_PBE Ga_d 06Jul2010
   POMASS =   69.723; ZVAL   =   13.000    mass and valenz
   ENMAX  =  282.691; ENMIN  =  212.018 eV

   TITEL  = PAW_PBE Ti_sv 26Sep2005
   POMASS =   47.880; ZVAL   =   12.000    mass and valenz
   ENMAX  =  274.610; ENMIN  =  205.957 eV

   TITEL  = PAW_PBE Al 04Jan2001
   POMASS =   26.981; ZVAL   =    3.000    mass and valenz
   ENMAX  =  240.300; ENMIN  =  180.225 eV

  PAW_PBE Ga_d 06Jul2010                :
  PAW_PBE Ti_sv 26Sep2005               :
  PAW_PBE Al 04Jan2001                  :

 POSCAR: Generated by VASPKIT code
  positions in direct lattice

 exchange-correlation table for PE
   RHO(1)=    0.500       N(1)  =     2000
   RHO(2)=  100.500       N(2)  =     4000

 ion  position               nearest neighbor table
   1  0.000  0.000  0.391-   3 2.80   3 2.80   5 2.80  10 2.88  11 2.88  12 2.88   9 2.88
   2  0.000  0.500  0.391-   4 2.80   4 2.80   6 2.80  12 2.85   9 2.85  10 2.85  11 2.85
   3  0.500  0.000  0.391-   1 2.80   1 2.80   7 2.80  12 2.87   9 2.87  10 2.87  11 2.87
   4  0.500  0.500  0.391-   2 2.80   2 2.80   8 2.80  11 2.85  10 2.85  12 2.85   9 2.85
   5  0.000  0.000  0.537-   7 2.80   7 2.80   1 2.80  11 2.87  10 2.87  12 2.87   9 2.87  14 2.87
                            15 2.87  16 2.87  13 2.87
   6  0.000  0.500  0.537-   8 2.80   8 2.80   2 2.80  12 2.85   9 2.85  10 2.85  11 2.85  16 2.85
                            13 2.85  14 2.85  15 2.85
   7  0.500  0.000  0.537-   5 2.80   5 2.80   3 2.80  10 2.87  11 2.87  12 2.87   9 2.87  16 2.87
                            13 2.87  14 2.87  15 2.87
   8  0.500  0.500  0.537-   6 2.80   6 2.80   4 2.80  11 2.84  10 2.84  12 2.84   9 2.84  15 2.84
                            14 2.84  16 2.84  13 2.84
   9  0.251  0.252  0.464-  13 2.79  11 2.79  11 2.81   8 2.84   6 2.85   4 2.85   2 2.85   7 2.87
                             5 2.87   3 2.87   1 2.88
  10  0.251  0.748  0.464-  14 2.79  12 2.79  12 2.81   8 2.84   6 2.85   4 2.85   2 2.85   7 2.87
                             5 2.87   3 2.87   1 2.88
  11  0.749  0.252  0.464-  15 2.79   9 2.79   9 2.81   8 2.84   6 2.85   4 2.85   2 2.85   7 2.87
                             5 2.87   3 2.87   1 2.88
  12  0.749  0.748  0.464-  16 2.79  10 2.79  10 2.81   8 2.84   6 2.85   4 2.85   2 2.85   7 2.87
                             5 2.87   3 2.87   1 2.88
  13  0.251  0.252  0.609-   9 2.79  15 2.79  15 2.81   8 2.84   6 2.85   7 2.87   5 2.87
  14  0.251  0.748  0.609-  10 2.79  16 2.79  16 2.81   8 2.84   6 2.85   7 2.87   5 2.87
  15  0.749  0.252  0.609-  11 2.79  13 2.79  13 2.81   8 2.84   6 2.85   7 2.87   5 2.87
  16  0.749  0.748  0.609-  12 2.79  14 2.79  14 2.81   8 2.84   6 2.85   7 2.87   5 2.87

  LATTYP: Found a simple orthorhombic cell.
 ALAT       =     5.6069519684
 B/A-ratio  =     1.4699085315
 C/A-ratio  =     3.4243034296

  Lattice vectors:

 A1 = (   5.6069519684,   0.0000000000,   0.0000000000)
 A2 = (   0.0000000000,   8.2417065342,   0.0000000000)
 A3 = (   0.0000000000,   0.0000000000,  19.1999048548)

Analysis of symmetry for initial positions (statically):
 Subroutine PRICEL returns:
 Original cell was already a primitive cell.

 Routine SETGRP: Setting up the symmetry group for a
 simple orthorhombic supercell.

 Subroutine GETGRP returns: Found  4 space group operations
 (whereof  4 operations were pure point group operations)
 out of a pool of  8 trial point group operations.

The static configuration has the point symmetry C_2v.

Analysis of symmetry for dynamics (positions and initial velocities):
 Subroutine PRICEL returns:
 Original cell was already a primitive cell.

 Routine SETGRP: Setting up the symmetry group for a
 simple orthorhombic supercell.

 Subroutine GETGRP returns: Found  4 space group operations
 (whereof  4 operations were pure point group operations)
 out of a pool of  8 trial point group operations.

The dynamic configuration has the point symmetry C_2v.

 Subroutine INISYM returns: Found  4 space group operations
 (whereof  4 operations are pure point group operations),
 and found     1 'primitive' translations

                                     Primitive cell

  volume of cell :     887.2440

  direct lattice vectors                    reciprocal lattice vectors
     5.606951968  0.000000000  0.000000000     0.178350021 -0.000000000 -0.000000000
     0.000000000  8.241706534  0.000000000     0.000000000  0.121334095 -0.000000000
     0.000000000  0.000000000 19.199904855     0.000000000  0.000000000  0.052083591

  length of vectors
     5.606951968  8.241706534 19.199904855     0.178350021  0.121334095  0.052083591

  position of ions in fractional coordinates (direct lattice)
     0.000000000  1.000000000  0.390626936
     0.000000000  0.500000000  0.390626936
     0.500000000  1.000000000  0.390626936
     0.500000000  0.500000000  0.390626936
     0.000000000  1.000000000  0.536642033
     0.000000000  0.500000000  0.536642033
     0.500000000  1.000000000  0.536642033
     0.500000000  0.500000000  0.536642033
     0.250946882  0.252071225  0.463911003
     0.250946882  0.747928775  0.463911003
     0.749053118  0.252071225  0.463911003
     0.749053118  0.747928775  0.463911003
     0.250946882  0.252071225  0.609373064
     0.250946882  0.747928775  0.609373064
     0.749053118  0.252071225  0.609373064
     0.749053118  0.747928775  0.609373064

  ion indices of the primitive-cell ions
   primitive index   ion index
                 1           1
                 2           2
                 3           3
                 4           4
                 5           5
                 6           6
                 7           7
                 8           8
                 9           9
                10          10
                11          11
                12          12
                13          13
                14          14
                15          15
                16          16

 KPOINTS: K-Spacing Value to Generate K-Mesh: 0.04

Automatic generation of k-mesh.
 Grid dimensions read from file:
 generate k-points for:    4    3    1

 Generating k-lattice:

  Cartesian coordinates                     Fractional coordinates (reciprocal lattice)
     0.044587505 -0.000000000 -0.000000000     0.250000000  0.000000000  0.000000000
     0.000000000  0.040444698 -0.000000000     0.000000000  0.333333333 -0.000000000
     0.000000000  0.000000000  0.052083591     0.000000000  0.000000000  1.000000000

  Length of vectors
     0.044587505  0.040444698  0.052083591

  Shift w.r.t. Gamma in fractional coordinates (k-lattice)
     0.000000000  0.000000000  0.000000000

 Subroutine IBZKPT returns following result:

 Found      6 irreducible k-points:

 Following reciprocal coordinates:
            Coordinates               Weight
  0.000000  0.000000  0.000000      1.000000
  0.250000  0.000000  0.000000      2.000000
  0.500000  0.000000  0.000000      1.000000
  0.000000  0.333333  0.000000      2.000000
  0.250000  0.333333  0.000000      4.000000
  0.500000  0.333333  0.000000      2.000000

 Following cartesian coordinates:
            Coordinates               Weight
  0.000000  0.000000  0.000000      1.000000
  0.044588  0.000000  0.000000      2.000000
  0.089175  0.000000  0.000000      1.000000
  0.000000  0.040445  0.000000      2.000000
  0.044588  0.040445  0.000000      4.000000
  0.089175  0.040445  0.000000      2.000000

 SYSTEM =  unknown system
 POSCAR =  Generated by VASPKIT code

 Startparameter for this run:
   NWRITE =      2    write-flag & timer
   PREC   = n         normal or accurate (medium, high low for compatibility)
   ISTART =      0    job   : 0-new  1-cont  2-samecut
   ICHARG =      2    charge: 1-file 2-atom 10-const
   ISPIN  =      1    spin polarized calculation?
   LNONCOLLINEAR =      F non collinear calculations
   LSORBIT =      F    spin-orbit coupling
   INIWAV =      1    electr: 0-lowe 1-rand  2-diag
   LASPH  =      F    aspherical Exc in radial PAW
 Electronic Relaxation 1
   ENCUT  =  520.0 eV  38.22 Ry    6.18 a.u.  10.43 15.32 35.70*2*pi/ulx,y,z
   ENINI  =  520.0     initial cutoff
   ENAUG  =  490.7 eV  augmentation charge cutoff
   NELM   =    500;   NELMIN=  2; NELMDL= -5     # of ELM steps
   EDIFF  = 0.1E-04   stopping-criterion for ELM
   LREAL  =      F    real-space projection
   NLSPLINE    = F    spline interpolate recip. space projectors
   LCOMPAT=      F    compatible to vasp.4.4
   GGA_COMPAT  = T    GGA compatible to vasp.4.4-vasp.4.6
   LMAXPAW     = -100 max onsite density
   LMAXMIX     =    2 max onsite mixed and CHGCAR
   VOSKOWN=      0    Vosko Wilk Nusair interpolation
   ROPT   =    0.00000   0.00000   0.00000
 Ionic relaxation
   EDIFFG = -.1E-01   stopping-criterion for IOM
   NSW    =      0    number of steps for IOM
   NBLOCK =      1;   KBLOCK =      1    inner block; outer block
   IBRION =     -1    ionic relax: 0-MD 1-quasi-New 2-CG
   NFREE  =      0    steps in history (QN), initial steepest desc. (CG)
   ISIF   =      3    stress and relaxation
   IWAVPR =     10    prediction:  0-non 1-charg 2-wave 3-comb
   ISYM   =      2    0-nonsym 1-usesym 2-fastsym
   LCORR  =      T    Harris-Foulkes like correction to forces

   POTIM  = 0.5000    time-step for ionic-motion
   TEIN   =    0.0    initial temperature
   TEBEG  =    0.0;   TEEND  =   0.0 temperature during run
   SMASS  =  -3.00    Nose mass-parameter (am)
   estimated Nose-frequenzy (Omega)   =  0.10E-29 period in steps = 0.13E+47 mass=  -0.718E-27a.u.
   SCALEE = 1.0000    scale energy and forces
[...]
   0.00000000  0.00000000 10.30347598
   0.00000000  4.12085327 10.30347598
   2.80347598  0.00000000 10.30347598
   2.80347598  4.12085327 10.30347598
   1.40704711  2.07749706  8.90704711
   1.40704711  6.16420947  8.90704711
   4.19990485  2.07749706  8.90704711
   4.19990485  6.16420947  8.90704711
   1.40704711  2.07749706 11.69990485
   1.40704711  6.16420947 11.69990485
   4.19990485  2.07749706 11.69990485
   4.19990485  6.16420947 11.69990485

 k-point     1 :   0.0000 0.0000 0.0000  plane waves:   23949
 k-point     2 :   0.2500 0.0000 0.0000  plane waves:   23891
 k-point     3 :   0.5000 0.0000 0.0000  plane waves:   23808
 k-point     4 :   0.0000 0.3333 0.0000  plane waves:   23932
 k-point     5 :   0.2500 0.3333 0.0000  plane waves:   23878
 k-point     6 :   0.5000 0.3333 0.0000  plane waves:   23860

 maximum and minimum number of plane-waves per node :     23949    23808

 maximum number of plane-waves:     23949
 maximum index in each direction:
   IXMAX=   10   IYMAX=   15   IZMAX=   35
   IXMIN=  -10   IYMIN=  -15   IZMIN=  -35

 serial   3D FFT for wavefunctions
 parallel 3D FFT for charge:
    minimum data exchange during FFTs selected (reduces bandwidth)

 Broyden mixing: mesh for mixing (old mesh)
   NGX = 21   NGY = 31   NGZ = 71
  (NGX  = 64   NGY  = 96   NGZ  =216)
  gives a total of  46221 points

 initial charge density was supplied:
 charge density of overlapping atoms calculated
 number of electron     121.0000000 magnetization
 keeping initial charge density in first step

 Maximum index for augmentation-charges          448 (set IRDMAX)

 First call to EWALD:  gamma=   0.184
 Maximum number of real-space cells   4x   3x   2
 Maximum number of reciprocal cells   2x   2x   5

--------------------------------------- Ionic step        1  -------------------------------------------

--------------------------------------- Iteration      1(   1)  ---------------------------------------

 eigenvalue-minimisations  :  1536
 total energy-change (2. order) : 0.8299560E+03  (-0.5787443E+04)
 number of electron     121.0000000 magnetization
 augmentation part      121.0000000 magnetization

 Free energy of the ion-electron system (eV)
  alpha Z        PSCENC =        92.03755193
  Ewald energy   TEWEN  =     15474.45623346
  -Hartree energ DENC   =    -27108.24778145
  -exchange      EXHF   =         0.00000000
  -V(xc)+E(xc)   XCENC  =       261.52267426
  PAW double counting   =     10984.71331719   -10925.53584238
  entropy T*S    EENTRO =         0.00589133
  eigenvalues    EBANDS =     -1642.72583637
  atomic energy  EATOM  =     13693.72977468
  Solvation  Ediel_sol  =         0.00000000
  free energy    TOTEN  =       829.95598265 eV

  energy without entropy =      829.95009132  energy(sigma->0) =      829.95401887

[...]

 eigenvalue-minimisations  :  1856
 total energy-change (2. order) :-0.8355190E+03  (-0.7933133E+03)
 number of electron     121.0000000 magnetization
 augmentation part      121.0000000 magnetization

[...]

 Broyden mixing:
  rms(total) = 0.25037E+01    rms(broyden)= 0.25036E+01
  rms(prec ) = 0.29944E+01
  weight for this iteration     100.00

[...]

 eigenvalues of (default mixing * dielectric matrix)
  average eigenvalue GAMMA=   0.2436
  0.2436

[...]

 eigenvalue-minimisations  :  2368
 total energy-change (2. order) : 0.3271505E-01  (-0.1245724E-01)
 number of electron     120.9999917 magnetization
 augmentation part       34.1545910 magnetization

[...]

 Broyden mixing:
  rms(total) = 0.97480E-04    rms(broyden)= 0.97461E-04
  rms(prec ) = 0.12998E-03
  weight for this iteration     100.00

 eigenvalues of (default mixing * dielectric matrix)
  average eigenvalue GAMMA=   1.5842
  8.4811  5.6360  3.2328  3.0027  2.1519  2.1519  1.7243  1.4809  1.1914  0.9998
  0.9998  0.8824  0.8127  0.8127  0.4294  0.6388  0.7042  0.2377  0.2241  0.1959
  0.1599  0.1381  0.1485

[...]

--------------------------------------- Iteration      1(  29)  ---------------------------------------

 eigenvalue-minimisations  :  1728
 total energy-change (2. order) :-0.9760781E-05  (-0.2707651E-07)
 number of electron     120.9999916 magnetization
 augmentation part       34.1050591 magnetization

 Free energy of the ion-electron system (eV)
  alpha Z        PSCENC =        92.03755193
  Ewald energy   TEWEN  =     15474.45623346
  -Hartree energ DENC   =    -27187.22120476
  -exchange      EXHF   =         0.00000000
  -V(xc)+E(xc)   XCENC  =       255.98540909
  PAW double counting   =     12779.48024452   -12696.05280718
  entropy T*S    EENTRO =         0.00090518
  eigenvalues    EBANDS =     -2495.53519132
  atomic energy  EATOM  =     13693.72977468
  Solvation  Ediel_sol  =         0.00000000
  free energy    TOTEN  =       -83.11908439 eV

  energy without entropy =      -83.11998957  energy(sigma->0) =      -83.11938612

 average (electrostatic) potential at core
  the test charge radii are     1.0314  1.0397  1.0406
  (the norm of the test charge is              1.0000)
       1 -70.1192       2 -81.3597       3 -81.3768       4 -81.2017       5 -80.9882
       6 -80.9662       7 -80.9159       8 -80.8917       9 -79.9646      10 -79.9646
      11 -79.9646      12 -79.9646      13 -80.3519      14 -80.3519      15 -80.3519
      16 -80.3519

 E-fermi :  -0.2062     XC(G=0):  -4.3606     alpha+bet : -4.6767

 val. band max:       -0.2115689122   @ k =   0.2500   0.3333   0.0000
 cond. band min:      -0.1766516978   @ k =   0.5000   0.0000   0.0000
 fundamental gap:      0.0349172144
 Fermi energy:        -0.2062481306

 k-point     1 :       0.0000    0.0000    0.0000
  band No.  band energies     occupation
      1     -57.3272      2.00000
      2     -57.3249      2.00000
      3     -57.1574      2.00000
      4     -56.9417      2.00000
      5     -56.9186      2.00000
      6     -56.8439      2.00000
      7     -56.8256      2.00000
      8     -33.7602      2.00000
      9     -33.6785      2.00000
     10     -33.6528      2.00000
     11     -33.6457      2.00000
     12     -33.6052      2.00000
     13     -33.5730      2.00000
     14     -33.4947      2.00000
     15     -33.4562      2.00000
     16     -33.3038      2.00000
     17     -33.2911      2.00000
     18     -33.2898      2.00000
     19     -33.2717      2.00000
     20     -33.2713      2.00000
     21     -33.2331      2.00000
     22     -33.2010      2.00000
     23     -33.1673      2.00000
     24     -33.0777      2.00000
     25     -33.0771      2.00000
     26     -33.0446      2.00000
     27     -32.8062      2.00000
     28     -32.7833      2.00000
     29     -14.5691      2.00000
     30     -14.5661      2.00000
     31     -14.5528      2.00000
     32     -14.5511      2.00000
     33     -14.5227      2.00000
     34      -8.6323      2.00000
     35      -7.1359      2.00000
     36      -6.8590      2.00000
     37      -5.4442      2.00000
     38      -5.3620      2.00000
     39      -4.2827      2.00000
     40      -4.1252      2.00000
     41      -4.0557      2.00000
     42      -3.6084      2.00000
     43      -2.8759      2.00000
     44      -2.8144      2.00000
     45      -2.7831      2.00000
     46      -2.3236      2.00000
     47      -1.9273      2.00000
     48      -1.9142      2.00000
     49      -1.8759      2.00000
     50      -1.7961      2.00000
     51      -1.4817      2.00000
     52      -1.3973      2.00000
     53      -1.3720      2.00000
     54      -1.3315      2.00000
     55      -0.9487      2.00000
     56      -0.6979      2.00000
     57      -0.5947      2.00000
     58      -0.5698      2.00000
     59      -0.4894      2.00046
     60      -0.2482      1.64520
[...]
    114       6.0804      0.00000
    115       6.2776      0.00000
    116       6.3302      0.00000
    117       6.4140      0.00000
    118       6.4307      0.00000
    119       6.5437      0.00000
    120       6.5679      0.00000
    121       7.1109      0.00000
    122       7.3684      0.00000
    123       7.3912      0.00000
    124       7.4411      0.00000
    125       7.8336      0.00000
    126       7.9822      0.00000
    127       8.0239      0.00000
    128       8.1123      0.00000

[...]

 k-point     6 :       0.5000    0.3333    0.0000
  band No.  band energies     occupation
      1     -57.3272      2.00000
      2     -57.3195      2.00000
      3     -57.1631      2.00000
      4     -56.9313      2.00000
      5     -56.9075      2.00000
      6     -56.8545      2.00000
      7     -56.8370      2.00000
      8     -33.7548      2.00000
      9     -33.6784      2.00000
     10     -33.6488      2.00000
     11     -33.6455      2.00000
     12     -33.6108      2.00000
     13     -33.4953      2.00000
     14     -33.4604      2.00000
     15     -33.3858      2.00000
     16     -33.2909      2.00000
     17     -33.2718      2.00000
     18     -33.2682      2.00000
     19     -33.2664      2.00000
     20     -33.2588      2.00000
     21     -33.2119      2.00000
     22     -33.1584      2.00000
     23     -33.0861      2.00000
     24     -33.0738      2.00000
     25     -33.0601      2.00000
     26     -33.0479      2.00000
     27     -33.0306      2.00000
     28     -33.0017      2.00000
     29     -14.5662      2.00000
     30     -14.5660      2.00000
     31     -14.5515      2.00000
     32     -14.5421      2.00000
     33     -14.5215      2.00000
     34      -7.5874      2.00000
     35      -7.0125      2.00000
     36      -6.6877      2.00000
     37      -6.5241      2.00000
     38      -5.7210      2.00000
     39      -4.9357      2.00000
     40      -4.7461      2.00000
     41      -4.5869      2.00000
     42      -3.7941      2.00000
     43      -3.0507      2.00000
     44      -2.5704      2.00000
     45      -2.2145      2.00000
     46      -1.9878      2.00000
     47      -1.7041      2.00000
     48      -1.7004      2.00000
     49      -1.4927      2.00000
     50      -1.4170      2.00000
     51      -1.4136      2.00000
     52      -0.9454      2.00000
     53      -0.9115      2.00000
     54      -0.6941      2.00000
     55      -0.6635      2.00000
     56      -0.5337      2.00004
     57      -0.4077      2.01527
     58      -0.3835      2.03103
     59      -0.3683      2.04424
     60      -0.3090      2.05547
[...]
    114       6.1812      0.00000
    115       6.3218      0.00000
    116       6.3230      0.00000
    117       6.4344      0.00000
    118       6.6506      0.00000
    119       6.7763      0.00000
    120       7.0611      0.00000
    121       7.0702      0.00000
    122       7.1868      0.00000
    123       7.3201      0.00000
    124       7.6067      0.00000
    125       7.6772      0.00000
    126       7.7251      0.00000
    127       7.7523      0.00000
    128       8.0441      0.00000

 soft charge-density along one line, spin component           1
         0         1         2         3         4         5         6         7         8         9
 total charge-density along one line

------------------------ aborting loop because EDIFF is reached ----------------------------------------

  FORCE on cell =-STRESS in cart. coord.  units (eV):
  Direction    XX          YY          ZZ          XY          YZ          ZX
  Alpha Z    92.03755    92.03755    92.03755
  Ewald   22007.60572 20059.60110-26592.76017     0.00000    -0.00000     0.00000
  Hartree 25033.04590 23461.47150-21307.31828    -0.00000    -0.00000    -0.00000
  E(xc)    -585.30640  -587.11807  -587.66081    -0.00000    -0.00000     0.00000
  Local  -48456.39481-44894.14349 46532.08881    -0.00000     0.00000    -0.00000
  n-local   -99.48305   -55.11213   -71.80736    -0.78318     0.00000    -0.00000
  augment   559.82050   536.63548   541.40576     0.00000     0.00000    -0.00000
  Kinetic  1441.59675  1371.06872  1389.42126     0.62768    -0.00000    -0.00000
  Fock        0.00000     0.00000     0.00000     0.00000     0.00000     0.00000
  Total      -7.07785   -15.55935    -4.59324    -0.00000    -0.00000    -0.00000
  in kB     -12.78111   -28.09693    -8.29443    -0.00000    -0.00000    -0.00000

 VOLUME and BASIS-vectors are now :
  energy-cutoff  :      520.00
  volume of cell :      887.24
      direct lattice vectors                 reciprocal lattice vectors
     5.606951968  0.000000000  0.000000000     0.178350021 -0.000000000 -0.000000000
     0.000000000  8.241706534  0.000000000     0.000000000  0.121334095 -0.000000000
     0.000000000  0.000000000 19.199904855     0.000000000  0.000000000  0.052083591

  length of vectors
     5.606951968  8.241706534 19.199904855     0.178350021  0.121334095  0.052083591

 FORCES acting on ions
    electron-ion (+dipol)            ewald-force                    non-local-force                 convergence-correction
   0.116E-13 -.665E-13 0.126E+04   -.100E-13 -.241E-14 -.127E+04   0.979E-16 0.979E-16 0.626E+01   -.901E-14 -.789E-13 -.173E-03
   0.192E-14 0.966E-12 0.118E+04   0.935E-14 -.423E-13 -.117E+04   -.821E-16 -.821E-16 -.525E+01   -.706E-14 0.118E-12 -.153E-03
   0.363E-12 0.552E-13 0.118E+04   -.761E-14 0.483E-14 -.117E+04   -.862E-16 -.862E-16 -.552E+01   -.307E-13 -.269E-13 -.272E-03
   0.382E-12 0.109E-11 0.118E+04   0.178E-13 0.280E-13 -.117E+04   -.747E-16 -.747E-16 -.478E+01   -.380E-13 0.104E-12 -.422E-03
   -.661E-14 -.552E-13 -.863E+03   -.627E-13 -.144E-13 0.865E+03   -.137E-16 -.137E-16 -.875E+00   0.175E-13 -.833E-13 -.102E-02
   -.712E-14 0.800E-12 -.849E+03   -.383E-13 0.146E-13 0.849E+03   -.121E-17 -.121E-17 -.776E-01   0.325E-13 0.387E-14 -.458E-03
   0.419E-12 0.193E-12 -.856E+03   -.696E-14 -.144E-13 0.855E+03   0.155E-16 0.155E-16 0.991E+00   -.765E-14 -.765E-13 -.172E-02
   0.405E-12 0.130E-11 -.848E+03   -.522E-13 0.389E-15 0.848E+03   0.108E-16 0.108E-16 0.690E+00   0.248E-14 0.159E-13 -.473E-03
   -.445E+00 0.557E+00 0.485E+02   0.103E+01 0.408E+00 -.482E+02   -.432E+00 -.949E+00 -.718E+00   0.383E-04 -.107E-03 -.192E-03
   -.445E+00 -.557E+00 0.485E+02   0.103E+01 -.408E+00 -.482E+02   -.432E+00 0.949E+00 -.718E+00   0.383E-04 0.107E-03 -.192E-03
   0.445E+00 0.557E+00 0.485E+02   -.103E+01 0.408E+00 -.482E+02   0.432E+00 -.949E+00 -.718E+00   -.383E-04 -.107E-03 -.192E-03
   0.445E+00 -.557E+00 0.485E+02   -.103E+01 -.408E+00 -.482E+02   0.432E+00 0.949E+00 -.718E+00   -.383E-04 0.107E-03 -.192E-03
   0.387E+00 0.157E+01 -.395E+03   -.291E+00 -.139E+01 0.390E+03   -.140E+00 -.262E+00 0.420E+01   -.424E-04 0.103E-04 -.142E-03
   0.387E+00 -.157E+01 -.395E+03   -.291E+00 0.139E+01 0.390E+03   -.140E+00 0.262E+00 0.420E+01   -.424E-04 -.103E-04 -.142E-03
   -.387E+00 0.157E+01 -.395E+03   0.291E+00 -.139E+01 0.390E+03   0.140E+00 -.262E+00 0.420E+01   0.424E-04 0.103E-04 -.142E-03
   -.387E+00 -.157E+01 -.395E+03   0.291E+00 0.139E+01 0.390E+03   0.140E+00 0.262E+00 0.420E+01   0.424E-04 -.103E-04 -.142E-03
   0.164E-11 0.369E-11 -.536E+01   -.150E-14 0.266E-14 0.000E+00   0.555E-16 0.111E-15 0.537E+01   -.399E-13 -.183E-13 -.603E-02

 POSITION                                       TOTAL-FORCE (eV/Angst)
      0.00000      0.00000      7.50000        -0.000000     -0.000000     -0.412428
      0.00000      4.12085      7.50000         0.000000      0.000000      0.266615
      2.80348      0.00000      7.50000         0.000000      0.000000      0.870987
      2.80348      4.12085      7.50000         0.000000      0.000000      0.906959
      0.00000      0.00000     10.30348         0.000000      0.000000      0.594556
      0.00000      4.12085     10.30348        -0.000000     -0.000000     -0.097592
      2.80348      0.00000     10.30348         0.000000      0.000000      0.165977
      2.80348      4.12085     10.30348         0.000000      0.000000      0.626869
      1.40705      2.07750      8.90705         0.151874      0.016749     -0.367704
      1.40705      6.16421      8.90705         0.151874     -0.016749     -0.367704
      4.19990      2.07750      8.90705        -0.151874      0.016749     -0.367704
      4.19990      6.16421      8.90705        -0.151874     -0.016749     -0.367704
      1.40705      2.07750     11.69990        -0.043233     -0.079936     -0.362782
      1.40705      6.16421     11.69990        -0.043233      0.079936     -0.362782
      4.19990      2.07750     11.69990         0.043233     -0.079936     -0.362782
      4.19990      6.16421     11.69990         0.043233      0.079936     -0.362782
    total drift:                                0.000000      0.000000      0.004276

  FREE ENERGIE OF THE ION-ELECTRON SYSTEM (eV)
  free  energy   TOTEN  =       -83.11908439 eV

  energy  without entropy=      -83.11998957  energy(sigma->0) =      -83.11938612

 writing wavefunctions